*SPEF "ieee 1481-1999"
*DESIGN "async_fifo"
*DATE "16:07:26 Friday August 14, 2026"
*VENDOR "The OpenROAD Project"
*PROGRAM "OpenROAD"
*VERSION "edf00dff99f6c40d67a30c0e22a8191c5d2ed9d6"
*DESIGN_FLOW "NAME_SCOPE LOCAL" "PIN_CAP NONE"
*DIVIDER /
*DELIMITER :
*BUS_DELIMITER []
*T_UNIT 1 NS
*C_UNIT 1 PF
*R_UNIT 1 OHM
*L_UNIT 1 HENRY

*NAME_MAP
*3 empty
*4 full
*5 rclk
*6 rdata[0]
*7 rdata[1]
*8 rdata[2]
*9 rdata[3]
*10 rdata[4]
*11 rdata[5]
*12 rdata[6]
*13 rdata[7]
*14 ren
*15 rrst_n
*16 wclk
*17 wdata[0]
*18 wdata[1]
*19 wdata[2]
*20 wdata[3]
*21 wdata[4]
*22 wdata[5]
*23 wdata[6]
*24 wdata[7]
*25 wen
*26 wrst_n
*27 _000_
*28 _001_
*29 _002_
*30 _003_
*31 _004_
*32 _005_
*33 _006_
*34 _007_
*35 _008_
*36 _009_
*37 _010_
*38 _011_
*39 _012_
*40 _013_
*41 _014_
*42 _015_
*43 _016_
*44 _017_
*45 _018_
*46 _019_
*47 _020_
*48 _021_
*49 _022_
*50 _023_
*51 _024_
*52 _025_
*53 _026_
*54 _027_
*55 _028_
*56 _029_
*57 _030_
*58 _031_
*59 _032_
*60 _033_
*61 _034_
*62 _035_
*63 _036_
*64 _037_
*65 _038_
*66 _039_
*67 _040_
*68 _041_
*69 _042_
*70 _043_
*71 _044_
*72 _045_
*73 _046_
*74 _047_
*75 _048_
*76 _049_
*77 _050_
*78 _051_
*79 _052_
*80 _053_
*81 _054_
*82 _055_
*83 _056_
*84 _057_
*85 _058_
*86 _059_
*87 _060_
*88 _061_
*89 _062_
*90 _063_
*91 _064_
*92 _065_
*93 _066_
*94 _067_
*95 _068_
*96 _069_
*97 _070_
*98 _071_
*99 _072_
*100 _073_
*101 _074_
*102 _075_
*103 _076_
*104 _077_
*105 _078_
*106 _079_
*107 _080_
*108 _081_
*109 _082_
*110 _083_
*111 _084_
*112 _085_
*113 _086_
*114 _087_
*115 _088_
*116 _089_
*117 _090_
*118 _091_
*119 _092_
*120 _093_
*121 _094_
*122 _095_
*123 _096_
*124 _097_
*125 _098_
*126 _099_
*127 _100_
*128 _101_
*129 _102_
*130 _103_
*131 _104_
*132 _105_
*133 _106_
*134 _107_
*135 _108_
*136 _109_
*137 _110_
*138 _111_
*139 _112_
*140 _113_
*141 _114_
*142 _115_
*143 _116_
*144 _117_
*145 _118_
*146 _119_
*147 _120_
*148 _121_
*149 _122_
*150 _123_
*151 _124_
*152 _125_
*153 _126_
*154 _127_
*155 _128_
*156 _129_
*157 _130_
*158 _131_
*159 _132_
*160 _133_
*161 _134_
*162 _135_
*163 _136_
*164 _137_
*165 _138_
*166 _139_
*167 _140_
*168 _141_
*169 _142_
*170 _143_
*171 _144_
*172 _145_
*173 _146_
*174 _147_
*175 _148_
*176 _149_
*177 _150_
*178 _151_
*179 _152_
*180 _153_
*181 _154_
*182 _155_
*183 _156_
*184 _157_
*185 _158_
*186 _159_
*187 _160_
*188 _161_
*189 _162_
*190 _163_
*191 _164_
*192 _165_
*193 _166_
*194 _167_
*195 _168_
*196 _169_
*197 _170_
*198 _171_
*199 _172_
*200 _173_
*201 _174_
*202 _175_
*203 _176_
*204 _177_
*205 _178_
*206 _179_
*207 _180_
*208 _181_
*209 _182_
*210 _183_
*211 _184_
*212 _185_
*213 _186_
*214 _187_
*215 _188_
*216 _189_
*217 _190_
*218 _191_
*219 _192_
*220 _193_
*221 _194_
*222 _195_
*223 _196_
*224 _197_
*225 _198_
*226 _199_
*227 _200_
*228 _201_
*229 _202_
*230 _203_
*231 _204_
*232 _205_
*233 _206_
*234 _207_
*235 _208_
*236 _209_
*237 _210_
*238 _211_
*239 _212_
*240 _213_
*241 _214_
*242 _215_
*243 _216_
*244 _217_
*245 _218_
*246 _219_
*247 _220_
*248 _221_
*249 _222_
*250 _223_
*251 _224_
*252 _225_
*253 _226_
*254 _227_
*255 _228_
*256 _229_
*257 _230_
*258 _231_
*259 _232_
*260 _233_
*261 _234_
*262 _235_
*263 _236_
*264 _237_
*265 _238_
*266 _239_
*267 _240_
*268 _241_
*269 _242_
*270 _243_
*271 _244_
*272 _245_
*273 _246_
*274 _247_
*275 _248_
*276 _249_
*277 _250_
*278 _251_
*279 bram\.mem\[0\]\[0\]
*280 bram\.mem\[0\]\[1\]
*281 bram\.mem\[0\]\[2\]
*282 bram\.mem\[0\]\[3\]
*283 bram\.mem\[0\]\[4\]
*284 bram\.mem\[0\]\[5\]
*285 bram\.mem\[0\]\[6\]
*286 bram\.mem\[0\]\[7\]
*287 bram\.mem\[10\]\[0\]
*288 bram\.mem\[10\]\[1\]
*289 bram\.mem\[10\]\[2\]
*290 bram\.mem\[10\]\[3\]
*291 bram\.mem\[10\]\[4\]
*292 bram\.mem\[10\]\[5\]
*293 bram\.mem\[10\]\[6\]
*294 bram\.mem\[10\]\[7\]
*295 bram\.mem\[11\]\[0\]
*296 bram\.mem\[11\]\[1\]
*297 bram\.mem\[11\]\[2\]
*298 bram\.mem\[11\]\[3\]
*299 bram\.mem\[11\]\[4\]
*300 bram\.mem\[11\]\[5\]
*301 bram\.mem\[11\]\[6\]
*302 bram\.mem\[11\]\[7\]
*303 bram\.mem\[12\]\[0\]
*304 bram\.mem\[12\]\[1\]
*305 bram\.mem\[12\]\[2\]
*306 bram\.mem\[12\]\[3\]
*307 bram\.mem\[12\]\[4\]
*308 bram\.mem\[12\]\[5\]
*309 bram\.mem\[12\]\[6\]
*310 bram\.mem\[12\]\[7\]
*311 bram\.mem\[13\]\[0\]
*312 bram\.mem\[13\]\[1\]
*313 bram\.mem\[13\]\[2\]
*314 bram\.mem\[13\]\[3\]
*315 bram\.mem\[13\]\[4\]
*316 bram\.mem\[13\]\[5\]
*317 bram\.mem\[13\]\[6\]
*318 bram\.mem\[13\]\[7\]
*319 bram\.mem\[14\]\[0\]
*320 bram\.mem\[14\]\[1\]
*321 bram\.mem\[14\]\[2\]
*322 bram\.mem\[14\]\[3\]
*323 bram\.mem\[14\]\[4\]
*324 bram\.mem\[14\]\[5\]
*325 bram\.mem\[14\]\[6\]
*326 bram\.mem\[14\]\[7\]
*327 bram\.mem\[15\]\[0\]
*328 bram\.mem\[15\]\[1\]
*329 bram\.mem\[15\]\[2\]
*330 bram\.mem\[15\]\[3\]
*331 bram\.mem\[15\]\[4\]
*332 bram\.mem\[15\]\[5\]
*333 bram\.mem\[15\]\[6\]
*334 bram\.mem\[15\]\[7\]
*335 bram\.mem\[1\]\[0\]
*336 bram\.mem\[1\]\[1\]
*337 bram\.mem\[1\]\[2\]
*338 bram\.mem\[1\]\[3\]
*339 bram\.mem\[1\]\[4\]
*340 bram\.mem\[1\]\[5\]
*341 bram\.mem\[1\]\[6\]
*342 bram\.mem\[1\]\[7\]
*343 bram\.mem\[2\]\[0\]
*344 bram\.mem\[2\]\[1\]
*345 bram\.mem\[2\]\[2\]
*346 bram\.mem\[2\]\[3\]
*347 bram\.mem\[2\]\[4\]
*348 bram\.mem\[2\]\[5\]
*349 bram\.mem\[2\]\[6\]
*350 bram\.mem\[2\]\[7\]
*351 bram\.mem\[3\]\[0\]
*352 bram\.mem\[3\]\[1\]
*353 bram\.mem\[3\]\[2\]
*354 bram\.mem\[3\]\[3\]
*355 bram\.mem\[3\]\[4\]
*356 bram\.mem\[3\]\[5\]
*357 bram\.mem\[3\]\[6\]
*358 bram\.mem\[3\]\[7\]
*359 bram\.mem\[4\]\[0\]
*360 bram\.mem\[4\]\[1\]
*361 bram\.mem\[4\]\[2\]
*362 bram\.mem\[4\]\[3\]
*363 bram\.mem\[4\]\[4\]
*364 bram\.mem\[4\]\[5\]
*365 bram\.mem\[4\]\[6\]
*366 bram\.mem\[4\]\[7\]
*367 bram\.mem\[5\]\[0\]
*368 bram\.mem\[5\]\[1\]
*369 bram\.mem\[5\]\[2\]
*370 bram\.mem\[5\]\[3\]
*371 bram\.mem\[5\]\[4\]
*372 bram\.mem\[5\]\[5\]
*373 bram\.mem\[5\]\[6\]
*374 bram\.mem\[5\]\[7\]
*375 bram\.mem\[6\]\[0\]
*376 bram\.mem\[6\]\[1\]
*377 bram\.mem\[6\]\[2\]
*378 bram\.mem\[6\]\[3\]
*379 bram\.mem\[6\]\[4\]
*380 bram\.mem\[6\]\[5\]
*381 bram\.mem\[6\]\[6\]
*382 bram\.mem\[6\]\[7\]
*383 bram\.mem\[7\]\[0\]
*384 bram\.mem\[7\]\[1\]
*385 bram\.mem\[7\]\[2\]
*386 bram\.mem\[7\]\[3\]
*387 bram\.mem\[7\]\[4\]
*388 bram\.mem\[7\]\[5\]
*389 bram\.mem\[7\]\[6\]
*390 bram\.mem\[7\]\[7\]
*391 bram\.mem\[8\]\[0\]
*392 bram\.mem\[8\]\[1\]
*393 bram\.mem\[8\]\[2\]
*394 bram\.mem\[8\]\[3\]
*395 bram\.mem\[8\]\[4\]
*396 bram\.mem\[8\]\[5\]
*397 bram\.mem\[8\]\[6\]
*398 bram\.mem\[8\]\[7\]
*399 bram\.mem\[9\]\[0\]
*400 bram\.mem\[9\]\[1\]
*401 bram\.mem\[9\]\[2\]
*402 bram\.mem\[9\]\[3\]
*403 bram\.mem\[9\]\[4\]
*404 bram\.mem\[9\]\[5\]
*405 bram\.mem\[9\]\[6\]
*406 bram\.mem\[9\]\[7\]
*407 bram\.raddr\[0\]
*408 bram\.raddr\[1\]
*409 bram\.raddr\[2\]
*410 bram\.raddr\[3\]
*411 bram\.waddr\[0\]
*412 bram\.waddr\[1\]
*413 bram\.waddr\[2\]
*414 bram\.waddr\[3\]
*415 clknet_0_rclk
*416 clknet_0_wclk
*417 clknet_1_0__leaf_rclk
*418 clknet_1_1__leaf_rclk
*419 clknet_4_0_0_wclk
*420 clknet_4_10_0_wclk
*421 clknet_4_11_0_wclk
*422 clknet_4_12_0_wclk
*423 clknet_4_13_0_wclk
*424 clknet_4_14_0_wclk
*425 clknet_4_15_0_wclk
*426 clknet_4_1_0_wclk
*427 clknet_4_2_0_wclk
*428 clknet_4_3_0_wclk
*429 clknet_4_4_0_wclk
*430 clknet_4_5_0_wclk
*431 clknet_4_6_0_wclk
*432 clknet_4_7_0_wclk
*433 clknet_4_8_0_wclk
*434 clknet_4_9_0_wclk
*435 net1
*436 net10
*437 net11
*438 net12
*439 net13
*440 net14
*441 net15
*442 net16
*443 net17
*444 net18
*445 net19
*446 net2
*447 net20
*448 net21
*449 net22
*450 net23
*451 net3
*452 net4
*453 net5
*454 net6
*455 net7
*456 net8
*457 net9
*458 r_ptr_bin\[4\]
*459 r_ptr_gray\[0\]
*460 r_ptr_gray\[1\]
*461 r_ptr_gray\[2\]
*462 r_ptr_gray\[3\]
*463 r_ptr_gray_sync\[0\]
*464 r_ptr_gray_sync\[1\]
*465 r_ptr_gray_sync\[2\]
*466 r_ptr_gray_sync\[3\]
*467 r_ptr_gray_sync\[4\]
*468 sync_grptr_to_wr\.q1\[0\]
*469 sync_grptr_to_wr\.q1\[1\]
*470 sync_grptr_to_wr\.q1\[2\]
*471 sync_grptr_to_wr\.q1\[3\]
*472 sync_grptr_to_wr\.q1\[4\]
*473 sync_gwptr_to_rd\.d1\[0\]
*474 sync_gwptr_to_rd\.d1\[1\]
*475 sync_gwptr_to_rd\.d1\[2\]
*476 sync_gwptr_to_rd\.d1\[3\]
*477 sync_gwptr_to_rd\.d1\[4\]
*478 sync_gwptr_to_rd\.q1\[0\]
*479 sync_gwptr_to_rd\.q1\[1\]
*480 sync_gwptr_to_rd\.q1\[2\]
*481 sync_gwptr_to_rd\.q1\[3\]
*482 sync_gwptr_to_rd\.q1\[4\]
*483 sync_gwptr_to_rd\.q2\[0\]
*484 sync_gwptr_to_rd\.q2\[1\]
*485 sync_gwptr_to_rd\.q2\[2\]
*486 sync_gwptr_to_rd\.q2\[3\]
*487 sync_gwptr_to_rd\.q2\[4\]
*488 u_rptr_handler\.b_rptr_next\[0\]
*489 u_rptr_handler\.b_rptr_next\[1\]
*490 u_rptr_handler\.b_rptr_next\[2\]
*491 u_rptr_handler\.b_rptr_next\[3\]
*492 u_rptr_handler\.b_rptr_next\[4\]
*493 u_rptr_handler\.g_rptr_next\[0\]
*494 u_rptr_handler\.g_rptr_next\[1\]
*495 u_rptr_handler\.g_rptr_next\[2\]
*496 u_rptr_handler\.g_rptr_next\[3\]
*497 u_wrptr_handler\.b_wptr_next\[0\]
*498 u_wrptr_handler\.b_wptr_next\[1\]
*499 u_wrptr_handler\.b_wptr_next\[2\]
*500 u_wrptr_handler\.b_wptr_next\[3\]
*501 u_wrptr_handler\.b_wptr_next\[4\]
*502 u_wrptr_handler\.g_wptr_next\[0\]
*503 u_wrptr_handler\.g_wptr_next\[1\]
*504 u_wrptr_handler\.g_wptr_next\[2\]
*505 u_wrptr_handler\.g_wptr_next\[3\]
*506 FILLER_0_107
*507 FILLER_0_111
*508 FILLER_0_113
*509 FILLER_0_121
*510 FILLER_0_133
*511 FILLER_0_139
*512 FILLER_0_15
*513 FILLER_0_150
*514 FILLER_0_162
*515 FILLER_0_185
*516 FILLER_0_193
*517 FILLER_0_197
*518 FILLER_0_209
*519 FILLER_0_221
*520 FILLER_0_225
*521 FILLER_0_237
*522 FILLER_0_249
*523 FILLER_0_253
*524 FILLER_0_27
*525 FILLER_0_29
*526 FILLER_0_3
*527 FILLER_0_37
*528 FILLER_0_44
*529 FILLER_0_57
*530 FILLER_0_76
*531 FILLER_0_94
*532 FILLER_10_102
*533 FILLER_10_112
*534 FILLER_10_120
*535 FILLER_10_132
*536 FILLER_10_15
*537 FILLER_10_150
*538 FILLER_10_168
*539 FILLER_10_178
*540 FILLER_10_190
*541 FILLER_10_197
*542 FILLER_10_209
*543 FILLER_10_221
*544 FILLER_10_233
*545 FILLER_10_245
*546 FILLER_10_251
*547 FILLER_10_253
*548 FILLER_10_27
*549 FILLER_10_29
*550 FILLER_10_3
*551 FILLER_10_46
*552 FILLER_10_58
*553 FILLER_10_70
*554 FILLER_10_82
*555 FILLER_10_94
*556 FILLER_11_106
*557 FILLER_11_113
*558 FILLER_11_125
*559 FILLER_11_137
*560 FILLER_11_149
*561 FILLER_11_166
*562 FILLER_11_187
*563 FILLER_11_199
*564 FILLER_11_211
*565 FILLER_11_223
*566 FILLER_11_225
*567 FILLER_11_237
*568 FILLER_11_245
*569 FILLER_11_25
*570 FILLER_11_3
*571 FILLER_11_54
*572 FILLER_11_57
*573 FILLER_11_70
*574 FILLER_11_83
*575 FILLER_11_95
*576 FILLER_12_105
*577 FILLER_12_11
*578 FILLER_12_123
*579 FILLER_12_159
*580 FILLER_12_192
*581 FILLER_12_197
*582 FILLER_12_209
*583 FILLER_12_221
*584 FILLER_12_233
*585 FILLER_12_245
*586 FILLER_12_251
*587 FILLER_12_253
*588 FILLER_12_29
*589 FILLER_12_3
*590 FILLER_12_51
*591 FILLER_12_85
*592 FILLER_13_11
*593 FILLER_13_122
*594 FILLER_13_160
*595 FILLER_13_169
*596 FILLER_13_210
*597 FILLER_13_222
*598 FILLER_13_225
*599 FILLER_13_237
*600 FILLER_13_249
*601 FILLER_13_3
*602 FILLER_13_51
*603 FILLER_13_55
*604 FILLER_13_57
*605 FILLER_13_63
*606 FILLER_13_94
*607 FILLER_14_130
*608 FILLER_14_141
*609 FILLER_14_15
*610 FILLER_14_163
*611 FILLER_14_194
*612 FILLER_14_201
*613 FILLER_14_207
*614 FILLER_14_248
*615 FILLER_14_253
*616 FILLER_14_27
*617 FILLER_14_29
*618 FILLER_14_3
*619 FILLER_14_37
*620 FILLER_14_65
*621 FILLER_14_82
*622 FILLER_15_107
*623 FILLER_15_111
*624 FILLER_15_122
*625 FILLER_15_128
*626 FILLER_15_15
*627 FILLER_15_154
*628 FILLER_15_160
*629 FILLER_15_189
*630 FILLER_15_225
*631 FILLER_15_250
*632 FILLER_15_27
*633 FILLER_15_3
*634 FILLER_15_35
*635 FILLER_15_66
*636 FILLER_15_87
*637 FILLER_16_117
*638 FILLER_16_128
*639 FILLER_16_141
*640 FILLER_16_160
*641 FILLER_16_168
*642 FILLER_16_178
*643 FILLER_16_186
*644 FILLER_16_192
*645 FILLER_16_197
*646 FILLER_16_207
*647 FILLER_16_219
*648 FILLER_16_23
*649 FILLER_16_231
*650 FILLER_16_251
*651 FILLER_16_253
*652 FILLER_16_27
*653 FILLER_16_3
*654 FILLER_16_45
*655 FILLER_16_51
*656 FILLER_16_68
*657 FILLER_16_83
*658 FILLER_16_85
*659 FILLER_16_97
*660 FILLER_17_109
*661 FILLER_17_11
*662 FILLER_17_113
*663 FILLER_17_131
*664 FILLER_17_143
*665 FILLER_17_213
*666 FILLER_17_221
*667 FILLER_17_225
*668 FILLER_17_247
*669 FILLER_17_255
*670 FILLER_17_28
*671 FILLER_17_3
*672 FILLER_17_50
*673 FILLER_17_66
*674 FILLER_17_85
*675 FILLER_18_139
*676 FILLER_18_141
*677 FILLER_18_149
*678 FILLER_18_195
*679 FILLER_18_240
*680 FILLER_18_249
*681 FILLER_18_253
*682 FILLER_18_3
*683 FILLER_18_50
*684 FILLER_18_85
*685 FILLER_18_9
*686 FILLER_19_109
*687 FILLER_19_113
*688 FILLER_19_146
*689 FILLER_19_15
*690 FILLER_19_165
*691 FILLER_19_182
*692 FILLER_19_202
*693 FILLER_19_214
*694 FILLER_19_222
*695 FILLER_19_225
*696 FILLER_19_233
*697 FILLER_19_251
*698 FILLER_19_27
*699 FILLER_19_3
*700 FILLER_19_35
*701 FILLER_19_45
*702 FILLER_19_53
*703 FILLER_19_57
*704 FILLER_19_65
*705 FILLER_19_91
*706 FILLER_19_99
*707 FILLER_1_108
*708 FILLER_1_129
*709 FILLER_1_148
*710 FILLER_1_15
*711 FILLER_1_156
*712 FILLER_1_166
*713 FILLER_1_185
*714 FILLER_1_197
*715 FILLER_1_209
*716 FILLER_1_221
*717 FILLER_1_225
*718 FILLER_1_237
*719 FILLER_1_249
*720 FILLER_1_27
*721 FILLER_1_3
*722 FILLER_1_39
*723 FILLER_1_57
*724 FILLER_20_109
*725 FILLER_20_117
*726 FILLER_20_129
*727 FILLER_20_137
*728 FILLER_20_141
*729 FILLER_20_15
*730 FILLER_20_153
*731 FILLER_20_157
*732 FILLER_20_180
*733 FILLER_20_184
*734 FILLER_20_193
*735 FILLER_20_197
*736 FILLER_20_209
*737 FILLER_20_221
*738 FILLER_20_227
*739 FILLER_20_248
*740 FILLER_20_253
*741 FILLER_20_27
*742 FILLER_20_3
*743 FILLER_20_38
*744 FILLER_20_46
*745 FILLER_20_65
*746 FILLER_20_80
*747 FILLER_20_85
*748 FILLER_20_97
*749 FILLER_21_101
*750 FILLER_21_109
*751 FILLER_21_113
*752 FILLER_21_125
*753 FILLER_21_133
*754 FILLER_21_145
*755 FILLER_21_15
*756 FILLER_21_169
*757 FILLER_21_181
*758 FILLER_21_210
*759 FILLER_21_222
*760 FILLER_21_252
*761 FILLER_21_256
*762 FILLER_21_3
*763 FILLER_21_37
*764 FILLER_21_49
*765 FILLER_21_55
*766 FILLER_21_57
*767 FILLER_21_69
*768 FILLER_21_81
*769 FILLER_21_89
*770 FILLER_22_102
*771 FILLER_22_114
*772 FILLER_22_150
*773 FILLER_22_154
*774 FILLER_22_174
*775 FILLER_22_197
*776 FILLER_22_214
*777 FILLER_22_226
*778 FILLER_22_24
*779 FILLER_22_242
*780 FILLER_22_250
*781 FILLER_22_253
*782 FILLER_22_29
*783 FILLER_22_3
*784 FILLER_22_47
*785 FILLER_22_66
*786 FILLER_22_7
*787 FILLER_22_76
*788 FILLER_22_85
*789 FILLER_23_122
*790 FILLER_23_139
*791 FILLER_23_202
*792 FILLER_23_225
*793 FILLER_23_23
*794 FILLER_23_251
*795 FILLER_23_3
*796 FILLER_23_46
*797 FILLER_23_57
*798 FILLER_23_63
*799 FILLER_24_118
*800 FILLER_24_135
*801 FILLER_24_139
*802 FILLER_24_162
*803 FILLER_24_168
*804 FILLER_24_202
*805 FILLER_24_24
*806 FILLER_24_250
*807 FILLER_24_253
*808 FILLER_24_29
*809 FILLER_24_3
*810 FILLER_24_35
*811 FILLER_24_45
*812 FILLER_24_56
*813 FILLER_24_76
*814 FILLER_24_85
*815 FILLER_25_109
*816 FILLER_25_113
*817 FILLER_25_123
*818 FILLER_25_15
*819 FILLER_25_165
*820 FILLER_25_169
*821 FILLER_25_182
*822 FILLER_25_204
*823 FILLER_25_216
*824 FILLER_25_225
*825 FILLER_25_237
*826 FILLER_25_256
*827 FILLER_25_26
*828 FILLER_25_3
*829 FILLER_25_50
*830 FILLER_25_57
*831 FILLER_25_61
*832 FILLER_25_83
*833 FILLER_25_87
*834 FILLER_26_109
*835 FILLER_26_113
*836 FILLER_26_120
*837 FILLER_26_124
*838 FILLER_26_134
*839 FILLER_26_164
*840 FILLER_26_172
*841 FILLER_26_184
*842 FILLER_26_197
*843 FILLER_26_219
*844 FILLER_26_231
*845 FILLER_26_25
*846 FILLER_26_253
*847 FILLER_26_29
*848 FILLER_26_3
*849 FILLER_26_64
*850 FILLER_26_79
*851 FILLER_26_83
*852 FILLER_26_91
*853 FILLER_26_99
*854 FILLER_27_104
*855 FILLER_27_113
*856 FILLER_27_125
*857 FILLER_27_137
*858 FILLER_27_150
*859 FILLER_27_167
*860 FILLER_27_175
*861 FILLER_27_205
*862 FILLER_27_217
*863 FILLER_27_223
*864 FILLER_27_225
*865 FILLER_27_248
*866 FILLER_27_256
*867 FILLER_27_26
*868 FILLER_27_3
*869 FILLER_27_48
*870 FILLER_27_66
*871 FILLER_27_9
*872 FILLER_27_92
*873 FILLER_28_104
*874 FILLER_28_119
*875 FILLER_28_131
*876 FILLER_28_139
*877 FILLER_28_15
*878 FILLER_28_157
*879 FILLER_28_175
*880 FILLER_28_192
*881 FILLER_28_197
*882 FILLER_28_203
*883 FILLER_28_244
*884 FILLER_28_253
*885 FILLER_28_27
*886 FILLER_28_3
*887 FILLER_28_45
*888 FILLER_28_79
*889 FILLER_28_83
*890 FILLER_28_85
*891 FILLER_28_93
*892 FILLER_29_105
*893 FILLER_29_111
*894 FILLER_29_129
*895 FILLER_29_15
*896 FILLER_29_185
*897 FILLER_29_197
*898 FILLER_29_209
*899 FILLER_29_221
*900 FILLER_29_225
*901 FILLER_29_229
*902 FILLER_29_250
*903 FILLER_29_256
*904 FILLER_29_27
*905 FILLER_29_3
*906 FILLER_29_39
*907 FILLER_29_51
*908 FILLER_29_55
*909 FILLER_29_66
*910 FILLER_29_84
*911 FILLER_29_88
*912 FILLER_2_15
*913 FILLER_2_150
*914 FILLER_2_193
*915 FILLER_2_197
*916 FILLER_2_209
*917 FILLER_2_221
*918 FILLER_2_233
*919 FILLER_2_245
*920 FILLER_2_251
*921 FILLER_2_253
*922 FILLER_2_27
*923 FILLER_2_29
*924 FILLER_2_3
*925 FILLER_2_35
*926 FILLER_2_85
*927 FILLER_2_91
*928 FILLER_30_138
*929 FILLER_30_141
*930 FILLER_30_177
*931 FILLER_30_189
*932 FILLER_30_195
*933 FILLER_30_217
*934 FILLER_30_228
*935 FILLER_30_24
*936 FILLER_30_253
*937 FILLER_30_29
*938 FILLER_30_3
*939 FILLER_30_41
*940 FILLER_30_85
*941 FILLER_31_107
*942 FILLER_31_111
*943 FILLER_31_129
*944 FILLER_31_137
*945 FILLER_31_148
*946 FILLER_31_160
*947 FILLER_31_169
*948 FILLER_31_181
*949 FILLER_31_193
*950 FILLER_31_215
*951 FILLER_31_22
*952 FILLER_31_223
*953 FILLER_31_225
*954 FILLER_31_231
*955 FILLER_31_243
*956 FILLER_31_28
*957 FILLER_31_3
*958 FILLER_31_45
*959 FILLER_31_53
*960 FILLER_31_57
*961 FILLER_31_63
*962 FILLER_31_89
*963 FILLER_31_97
*964 FILLER_32_118
*965 FILLER_32_126
*966 FILLER_32_133
*967 FILLER_32_139
*968 FILLER_32_141
*969 FILLER_32_149
*970 FILLER_32_159
*971 FILLER_32_171
*972 FILLER_32_179
*973 FILLER_32_191
*974 FILLER_32_195
*975 FILLER_32_50
*976 FILLER_32_63
*977 FILLER_32_75
*978 FILLER_32_83
*979 FILLER_32_85
*980 FILLER_32_97
*981 FILLER_33_108
*982 FILLER_33_113
*983 FILLER_33_125
*984 FILLER_33_138
*985 FILLER_33_166
*986 FILLER_33_169
*987 FILLER_33_200
*988 FILLER_33_22
*989 FILLER_33_225
*990 FILLER_33_229
*991 FILLER_33_251
*992 FILLER_33_3
*993 FILLER_33_33
*994 FILLER_33_44
*995 FILLER_33_66
*996 FILLER_33_78
*997 FILLER_33_90
*998 FILLER_33_98
*999 FILLER_34_109
*1000 FILLER_34_194
*1001 FILLER_34_197
*1002 FILLER_34_21
*1003 FILLER_34_239
*1004 FILLER_34_253
*1005 FILLER_34_27
*1006 FILLER_34_29
*1007 FILLER_34_33
*1008 FILLER_34_61
*1009 FILLER_34_83
*1010 FILLER_34_9
*1011 FILLER_34_91
*1012 FILLER_35_108
*1013 FILLER_35_143
*1014 FILLER_35_15
*1015 FILLER_35_167
*1016 FILLER_35_183
*1017 FILLER_35_206
*1018 FILLER_35_218
*1019 FILLER_35_225
*1020 FILLER_35_25
*1021 FILLER_35_3
*1022 FILLER_35_57
*1023 FILLER_36_107
*1024 FILLER_36_113
*1025 FILLER_36_136
*1026 FILLER_36_147
*1027 FILLER_36_153
*1028 FILLER_36_165
*1029 FILLER_36_176
*1030 FILLER_36_182
*1031 FILLER_36_195
*1032 FILLER_36_200
*1033 FILLER_36_246
*1034 FILLER_36_25
*1035 FILLER_36_253
*1036 FILLER_36_29
*1037 FILLER_36_3
*1038 FILLER_36_48
*1039 FILLER_36_94
*1040 FILLER_37_109
*1041 FILLER_37_136
*1042 FILLER_37_148
*1043 FILLER_37_160
*1044 FILLER_37_169
*1045 FILLER_37_194
*1046 FILLER_37_203
*1047 FILLER_37_215
*1048 FILLER_37_223
*1049 FILLER_37_225
*1050 FILLER_37_237
*1051 FILLER_37_249
*1052 FILLER_37_3
*1053 FILLER_37_54
*1054 FILLER_37_57
*1055 FILLER_37_69
*1056 FILLER_37_7
*1057 FILLER_37_77
*1058 FILLER_37_97
*1059 FILLER_38_111
*1060 FILLER_38_122
*1061 FILLER_38_134
*1062 FILLER_38_150
*1063 FILLER_38_202
*1064 FILLER_38_208
*1065 FILLER_38_22
*1066 FILLER_38_220
*1067 FILLER_38_241
*1068 FILLER_38_249
*1069 FILLER_38_253
*1070 FILLER_38_3
*1071 FILLER_38_38
*1072 FILLER_38_50
*1073 FILLER_38_63
*1074 FILLER_38_75
*1075 FILLER_38_85
*1076 FILLER_38_89
*1077 FILLER_38_99
*1078 FILLER_39_11
*1079 FILLER_39_122
*1080 FILLER_39_167
*1081 FILLER_39_178
*1082 FILLER_39_182
*1083 FILLER_39_219
*1084 FILLER_39_22
*1085 FILLER_39_223
*1086 FILLER_39_225
*1087 FILLER_39_237
*1088 FILLER_39_249
*1089 FILLER_39_3
*1090 FILLER_39_34
*1091 FILLER_39_46
*1092 FILLER_39_57
*1093 FILLER_39_79
*1094 FILLER_3_113
*1095 FILLER_3_117
*1096 FILLER_3_148
*1097 FILLER_3_15
*1098 FILLER_3_156
*1099 FILLER_3_190
*1100 FILLER_3_202
*1101 FILLER_3_214
*1102 FILLER_3_222
*1103 FILLER_3_225
*1104 FILLER_3_237
*1105 FILLER_3_249
*1106 FILLER_3_27
*1107 FILLER_3_3
*1108 FILLER_3_39
*1109 FILLER_3_78
*1110 FILLER_40_118
*1111 FILLER_40_137
*1112 FILLER_40_141
*1113 FILLER_40_174
*1114 FILLER_40_186
*1115 FILLER_40_192
*1116 FILLER_40_197
*1117 FILLER_40_201
*1118 FILLER_40_21
*1119 FILLER_40_248
*1120 FILLER_40_253
*1121 FILLER_40_27
*1122 FILLER_40_29
*1123 FILLER_40_41
*1124 FILLER_40_59
*1125 FILLER_40_81
*1126 FILLER_40_85
*1127 FILLER_40_9
*1128 FILLER_41_111
*1129 FILLER_41_113
*1130 FILLER_41_125
*1131 FILLER_41_143
*1132 FILLER_41_15
*1133 FILLER_41_155
*1134 FILLER_41_185
*1135 FILLER_41_197
*1136 FILLER_41_205
*1137 FILLER_41_210
*1138 FILLER_41_218
*1139 FILLER_41_225
*1140 FILLER_41_237
*1141 FILLER_41_249
*1142 FILLER_41_27
*1143 FILLER_41_3
*1144 FILLER_41_39
*1145 FILLER_41_51
*1146 FILLER_41_55
*1147 FILLER_41_57
*1148 FILLER_41_84
*1149 FILLER_42_107
*1150 FILLER_42_119
*1151 FILLER_42_123
*1152 FILLER_42_141
*1153 FILLER_42_15
*1154 FILLER_42_185
*1155 FILLER_42_193
*1156 FILLER_42_197
*1157 FILLER_42_209
*1158 FILLER_42_221
*1159 FILLER_42_233
*1160 FILLER_42_245
*1161 FILLER_42_251
*1162 FILLER_42_253
*1163 FILLER_42_27
*1164 FILLER_42_29
*1165 FILLER_42_3
*1166 FILLER_42_41
*1167 FILLER_42_63
*1168 FILLER_42_74
*1169 FILLER_42_82
*1170 FILLER_42_85
*1171 FILLER_43_109
*1172 FILLER_43_113
*1173 FILLER_43_137
*1174 FILLER_43_141
*1175 FILLER_43_146
*1176 FILLER_43_15
*1177 FILLER_43_153
*1178 FILLER_43_160
*1179 FILLER_43_167
*1180 FILLER_43_169
*1181 FILLER_43_174
*1182 FILLER_43_181
*1183 FILLER_43_191
*1184 FILLER_43_195
*1185 FILLER_43_197
*1186 FILLER_43_209
*1187 FILLER_43_221
*1188 FILLER_43_225
*1189 FILLER_43_237
*1190 FILLER_43_249
*1191 FILLER_43_253
*1192 FILLER_43_27
*1193 FILLER_43_29
*1194 FILLER_43_3
*1195 FILLER_43_41
*1196 FILLER_43_53
*1197 FILLER_43_57
*1198 FILLER_43_69
*1199 FILLER_43_81
*1200 FILLER_43_85
*1201 FILLER_43_97
*1202 FILLER_4_103
*1203 FILLER_4_113
*1204 FILLER_4_125
*1205 FILLER_4_137
*1206 FILLER_4_141
*1207 FILLER_4_15
*1208 FILLER_4_153
*1209 FILLER_4_165
*1210 FILLER_4_178
*1211 FILLER_4_190
*1212 FILLER_4_197
*1213 FILLER_4_209
*1214 FILLER_4_221
*1215 FILLER_4_233
*1216 FILLER_4_245
*1217 FILLER_4_251
*1218 FILLER_4_253
*1219 FILLER_4_27
*1220 FILLER_4_29
*1221 FILLER_4_3
*1222 FILLER_4_41
*1223 FILLER_4_58
*1224 FILLER_4_62
*1225 FILLER_4_72
*1226 FILLER_4_85
*1227 FILLER_4_97
*1228 FILLER_5_111
*1229 FILLER_5_113
*1230 FILLER_5_125
*1231 FILLER_5_137
*1232 FILLER_5_149
*1233 FILLER_5_15
*1234 FILLER_5_161
*1235 FILLER_5_167
*1236 FILLER_5_169
*1237 FILLER_5_181
*1238 FILLER_5_193
*1239 FILLER_5_205
*1240 FILLER_5_21
*1241 FILLER_5_217
*1242 FILLER_5_223
*1243 FILLER_5_225
*1244 FILLER_5_237
*1245 FILLER_5_249
*1246 FILLER_5_3
*1247 FILLER_5_38
*1248 FILLER_5_42
*1249 FILLER_5_52
*1250 FILLER_5_68
*1251 FILLER_5_80
*1252 FILLER_5_88
*1253 FILLER_5_99
*1254 FILLER_6_122
*1255 FILLER_6_126
*1256 FILLER_6_136
*1257 FILLER_6_141
*1258 FILLER_6_145
*1259 FILLER_6_15
*1260 FILLER_6_171
*1261 FILLER_6_183
*1262 FILLER_6_195
*1263 FILLER_6_197
*1264 FILLER_6_209
*1265 FILLER_6_221
*1266 FILLER_6_233
*1267 FILLER_6_245
*1268 FILLER_6_251
*1269 FILLER_6_253
*1270 FILLER_6_27
*1271 FILLER_6_29
*1272 FILLER_6_3
*1273 FILLER_6_69
*1274 FILLER_6_77
*1275 FILLER_6_85
*1276 FILLER_6_98
*1277 FILLER_7_113
*1278 FILLER_7_137
*1279 FILLER_7_15
*1280 FILLER_7_185
*1281 FILLER_7_197
*1282 FILLER_7_209
*1283 FILLER_7_221
*1284 FILLER_7_225
*1285 FILLER_7_237
*1286 FILLER_7_249
*1287 FILLER_7_3
*1288 FILLER_7_57
*1289 FILLER_7_95
*1290 FILLER_8_106
*1291 FILLER_8_138
*1292 FILLER_8_15
*1293 FILLER_8_152
*1294 FILLER_8_156
*1295 FILLER_8_187
*1296 FILLER_8_195
*1297 FILLER_8_197
*1298 FILLER_8_209
*1299 FILLER_8_221
*1300 FILLER_8_233
*1301 FILLER_8_245
*1302 FILLER_8_251
*1303 FILLER_8_253
*1304 FILLER_8_27
*1305 FILLER_8_29
*1306 FILLER_8_3
*1307 FILLER_8_53
*1308 FILLER_9_100
*1309 FILLER_9_113
*1310 FILLER_9_133
*1311 FILLER_9_139
*1312 FILLER_9_15
*1313 FILLER_9_164
*1314 FILLER_9_187
*1315 FILLER_9_199
*1316 FILLER_9_211
*1317 FILLER_9_223
*1318 FILLER_9_225
*1319 FILLER_9_237
*1320 FILLER_9_249
*1321 FILLER_9_27
*1322 FILLER_9_3
*1323 FILLER_9_37
*1324 FILLER_9_45
*1325 FILLER_9_57
*1326 FILLER_9_83
*1327 PHY_EDGE_ROW_0_Left_44
*1328 PHY_EDGE_ROW_0_Right_0
*1329 PHY_EDGE_ROW_10_Left_54
*1330 PHY_EDGE_ROW_10_Right_10
*1331 PHY_EDGE_ROW_11_Left_55
*1332 PHY_EDGE_ROW_11_Right_11
*1333 PHY_EDGE_ROW_12_Left_56
*1334 PHY_EDGE_ROW_12_Right_12
*1335 PHY_EDGE_ROW_13_Left_57
*1336 PHY_EDGE_ROW_13_Right_13
*1337 PHY_EDGE_ROW_14_Left_58
*1338 PHY_EDGE_ROW_14_Right_14
*1339 PHY_EDGE_ROW_15_Left_59
*1340 PHY_EDGE_ROW_15_Right_15
*1341 PHY_EDGE_ROW_16_Left_60
*1342 PHY_EDGE_ROW_16_Right_16
*1343 PHY_EDGE_ROW_17_Left_61
*1344 PHY_EDGE_ROW_17_Right_17
*1345 PHY_EDGE_ROW_18_Left_62
*1346 PHY_EDGE_ROW_18_Right_18
*1347 PHY_EDGE_ROW_19_Left_63
*1348 PHY_EDGE_ROW_19_Right_19
*1349 PHY_EDGE_ROW_1_Left_45
*1350 PHY_EDGE_ROW_1_Right_1
*1351 PHY_EDGE_ROW_20_Left_64
*1352 PHY_EDGE_ROW_20_Right_20
*1353 PHY_EDGE_ROW_21_Left_65
*1354 PHY_EDGE_ROW_21_Right_21
*1355 PHY_EDGE_ROW_22_Left_66
*1356 PHY_EDGE_ROW_22_Right_22
*1357 PHY_EDGE_ROW_23_Left_67
*1358 PHY_EDGE_ROW_23_Right_23
*1359 PHY_EDGE_ROW_24_Left_68
*1360 PHY_EDGE_ROW_24_Right_24
*1361 PHY_EDGE_ROW_25_Left_69
*1362 PHY_EDGE_ROW_25_Right_25
*1363 PHY_EDGE_ROW_26_Left_70
*1364 PHY_EDGE_ROW_26_Right_26
*1365 PHY_EDGE_ROW_27_Left_71
*1366 PHY_EDGE_ROW_27_Right_27
*1367 PHY_EDGE_ROW_28_Left_72
*1368 PHY_EDGE_ROW_28_Right_28
*1369 PHY_EDGE_ROW_29_Left_73
*1370 PHY_EDGE_ROW_29_Right_29
*1371 PHY_EDGE_ROW_2_Left_46
*1372 PHY_EDGE_ROW_2_Right_2
*1373 PHY_EDGE_ROW_30_Left_74
*1374 PHY_EDGE_ROW_30_Right_30
*1375 PHY_EDGE_ROW_31_Left_75
*1376 PHY_EDGE_ROW_31_Right_31
*1377 PHY_EDGE_ROW_32_Left_76
*1378 PHY_EDGE_ROW_32_Right_32
*1379 PHY_EDGE_ROW_33_Left_77
*1380 PHY_EDGE_ROW_33_Right_33
*1381 PHY_EDGE_ROW_34_Left_78
*1382 PHY_EDGE_ROW_34_Right_34
*1383 PHY_EDGE_ROW_35_Left_79
*1384 PHY_EDGE_ROW_35_Right_35
*1385 PHY_EDGE_ROW_36_Left_80
*1386 PHY_EDGE_ROW_36_Right_36
*1387 PHY_EDGE_ROW_37_Left_81
*1388 PHY_EDGE_ROW_37_Right_37
*1389 PHY_EDGE_ROW_38_Left_82
*1390 PHY_EDGE_ROW_38_Right_38
*1391 PHY_EDGE_ROW_39_Left_83
*1392 PHY_EDGE_ROW_39_Right_39
*1393 PHY_EDGE_ROW_3_Left_47
*1394 PHY_EDGE_ROW_3_Right_3
*1395 PHY_EDGE_ROW_40_Left_84
*1396 PHY_EDGE_ROW_40_Right_40
*1397 PHY_EDGE_ROW_41_Left_85
*1398 PHY_EDGE_ROW_41_Right_41
*1399 PHY_EDGE_ROW_42_Left_86
*1400 PHY_EDGE_ROW_42_Right_42
*1401 PHY_EDGE_ROW_43_Left_87
*1402 PHY_EDGE_ROW_43_Right_43
*1403 PHY_EDGE_ROW_4_Left_48
*1404 PHY_EDGE_ROW_4_Right_4
*1405 PHY_EDGE_ROW_5_Left_49
*1406 PHY_EDGE_ROW_5_Right_5
*1407 PHY_EDGE_ROW_6_Left_50
*1408 PHY_EDGE_ROW_6_Right_6
*1409 PHY_EDGE_ROW_7_Left_51
*1410 PHY_EDGE_ROW_7_Right_7
*1411 PHY_EDGE_ROW_8_Left_52
*1412 PHY_EDGE_ROW_8_Right_8
*1413 PHY_EDGE_ROW_9_Left_53
*1414 PHY_EDGE_ROW_9_Right_9
*1415 TAP_TAPCELL_ROW_0_88
*1416 TAP_TAPCELL_ROW_0_89
*1417 TAP_TAPCELL_ROW_0_90
*1418 TAP_TAPCELL_ROW_0_91
*1419 TAP_TAPCELL_ROW_0_92
*1420 TAP_TAPCELL_ROW_0_93
*1421 TAP_TAPCELL_ROW_0_94
*1422 TAP_TAPCELL_ROW_0_95
*1423 TAP_TAPCELL_ROW_0_96
*1424 TAP_TAPCELL_ROW_10_137
*1425 TAP_TAPCELL_ROW_10_138
*1426 TAP_TAPCELL_ROW_10_139
*1427 TAP_TAPCELL_ROW_10_140
*1428 TAP_TAPCELL_ROW_10_141
*1429 TAP_TAPCELL_ROW_11_142
*1430 TAP_TAPCELL_ROW_11_143
*1431 TAP_TAPCELL_ROW_11_144
*1432 TAP_TAPCELL_ROW_11_145
*1433 TAP_TAPCELL_ROW_12_146
*1434 TAP_TAPCELL_ROW_12_147
*1435 TAP_TAPCELL_ROW_12_148
*1436 TAP_TAPCELL_ROW_12_149
*1437 TAP_TAPCELL_ROW_12_150
*1438 TAP_TAPCELL_ROW_13_151
*1439 TAP_TAPCELL_ROW_13_152
*1440 TAP_TAPCELL_ROW_13_153
*1441 TAP_TAPCELL_ROW_13_154
*1442 TAP_TAPCELL_ROW_14_155
*1443 TAP_TAPCELL_ROW_14_156
*1444 TAP_TAPCELL_ROW_14_157
*1445 TAP_TAPCELL_ROW_14_158
*1446 TAP_TAPCELL_ROW_14_159
*1447 TAP_TAPCELL_ROW_15_160
*1448 TAP_TAPCELL_ROW_15_161
*1449 TAP_TAPCELL_ROW_15_162
*1450 TAP_TAPCELL_ROW_15_163
*1451 TAP_TAPCELL_ROW_16_164
*1452 TAP_TAPCELL_ROW_16_165
*1453 TAP_TAPCELL_ROW_16_166
*1454 TAP_TAPCELL_ROW_16_167
*1455 TAP_TAPCELL_ROW_16_168
*1456 TAP_TAPCELL_ROW_17_169
*1457 TAP_TAPCELL_ROW_17_170
*1458 TAP_TAPCELL_ROW_17_171
*1459 TAP_TAPCELL_ROW_17_172
*1460 TAP_TAPCELL_ROW_18_173
*1461 TAP_TAPCELL_ROW_18_174
*1462 TAP_TAPCELL_ROW_18_175
*1463 TAP_TAPCELL_ROW_18_176
*1464 TAP_TAPCELL_ROW_18_177
*1465 TAP_TAPCELL_ROW_19_178
*1466 TAP_TAPCELL_ROW_19_179
*1467 TAP_TAPCELL_ROW_19_180
*1468 TAP_TAPCELL_ROW_19_181
*1469 TAP_TAPCELL_ROW_1_100
*1470 TAP_TAPCELL_ROW_1_97
*1471 TAP_TAPCELL_ROW_1_98
*1472 TAP_TAPCELL_ROW_1_99
*1473 TAP_TAPCELL_ROW_20_182
*1474 TAP_TAPCELL_ROW_20_183
*1475 TAP_TAPCELL_ROW_20_184
*1476 TAP_TAPCELL_ROW_20_185
*1477 TAP_TAPCELL_ROW_20_186
*1478 TAP_TAPCELL_ROW_21_187
*1479 TAP_TAPCELL_ROW_21_188
*1480 TAP_TAPCELL_ROW_21_189
*1481 TAP_TAPCELL_ROW_21_190
*1482 TAP_TAPCELL_ROW_22_191
*1483 TAP_TAPCELL_ROW_22_192
*1484 TAP_TAPCELL_ROW_22_193
*1485 TAP_TAPCELL_ROW_22_194
*1486 TAP_TAPCELL_ROW_22_195
*1487 TAP_TAPCELL_ROW_23_196
*1488 TAP_TAPCELL_ROW_23_197
*1489 TAP_TAPCELL_ROW_23_198
*1490 TAP_TAPCELL_ROW_23_199
*1491 TAP_TAPCELL_ROW_24_200
*1492 TAP_TAPCELL_ROW_24_201
*1493 TAP_TAPCELL_ROW_24_202
*1494 TAP_TAPCELL_ROW_24_203
*1495 TAP_TAPCELL_ROW_24_204
*1496 TAP_TAPCELL_ROW_25_205
*1497 TAP_TAPCELL_ROW_25_206
*1498 TAP_TAPCELL_ROW_25_207
*1499 TAP_TAPCELL_ROW_25_208
*1500 TAP_TAPCELL_ROW_26_209
*1501 TAP_TAPCELL_ROW_26_210
*1502 TAP_TAPCELL_ROW_26_211
*1503 TAP_TAPCELL_ROW_26_212
*1504 TAP_TAPCELL_ROW_26_213
*1505 TAP_TAPCELL_ROW_27_214
*1506 TAP_TAPCELL_ROW_27_215
*1507 TAP_TAPCELL_ROW_27_216
*1508 TAP_TAPCELL_ROW_27_217
*1509 TAP_TAPCELL_ROW_28_218
*1510 TAP_TAPCELL_ROW_28_219
*1511 TAP_TAPCELL_ROW_28_220
*1512 TAP_TAPCELL_ROW_28_221
*1513 TAP_TAPCELL_ROW_28_222
*1514 TAP_TAPCELL_ROW_29_223
*1515 TAP_TAPCELL_ROW_29_224
*1516 TAP_TAPCELL_ROW_29_225
*1517 TAP_TAPCELL_ROW_29_226
*1518 TAP_TAPCELL_ROW_2_101
*1519 TAP_TAPCELL_ROW_2_102
*1520 TAP_TAPCELL_ROW_2_103
*1521 TAP_TAPCELL_ROW_2_104
*1522 TAP_TAPCELL_ROW_2_105
*1523 TAP_TAPCELL_ROW_30_227
*1524 TAP_TAPCELL_ROW_30_228
*1525 TAP_TAPCELL_ROW_30_229
*1526 TAP_TAPCELL_ROW_30_230
*1527 TAP_TAPCELL_ROW_30_231
*1528 TAP_TAPCELL_ROW_31_232
*1529 TAP_TAPCELL_ROW_31_233
*1530 TAP_TAPCELL_ROW_31_234
*1531 TAP_TAPCELL_ROW_31_235
*1532 TAP_TAPCELL_ROW_32_236
*1533 TAP_TAPCELL_ROW_32_237
*1534 TAP_TAPCELL_ROW_32_238
*1535 TAP_TAPCELL_ROW_32_239
*1536 TAP_TAPCELL_ROW_32_240
*1537 TAP_TAPCELL_ROW_33_241
*1538 TAP_TAPCELL_ROW_33_242
*1539 TAP_TAPCELL_ROW_33_243
*1540 TAP_TAPCELL_ROW_33_244
*1541 TAP_TAPCELL_ROW_34_245
*1542 TAP_TAPCELL_ROW_34_246
*1543 TAP_TAPCELL_ROW_34_247
*1544 TAP_TAPCELL_ROW_34_248
*1545 TAP_TAPCELL_ROW_34_249
*1546 TAP_TAPCELL_ROW_35_250
*1547 TAP_TAPCELL_ROW_35_251
*1548 TAP_TAPCELL_ROW_35_252
*1549 TAP_TAPCELL_ROW_35_253
*1550 TAP_TAPCELL_ROW_36_254
*1551 TAP_TAPCELL_ROW_36_255
*1552 TAP_TAPCELL_ROW_36_256
*1553 TAP_TAPCELL_ROW_36_257
*1554 TAP_TAPCELL_ROW_36_258
*1555 TAP_TAPCELL_ROW_37_259
*1556 TAP_TAPCELL_ROW_37_260
*1557 TAP_TAPCELL_ROW_37_261
*1558 TAP_TAPCELL_ROW_37_262
*1559 TAP_TAPCELL_ROW_38_263
*1560 TAP_TAPCELL_ROW_38_264
*1561 TAP_TAPCELL_ROW_38_265
*1562 TAP_TAPCELL_ROW_38_266
*1563 TAP_TAPCELL_ROW_38_267
*1564 TAP_TAPCELL_ROW_39_268
*1565 TAP_TAPCELL_ROW_39_269
*1566 TAP_TAPCELL_ROW_39_270
*1567 TAP_TAPCELL_ROW_39_271
*1568 TAP_TAPCELL_ROW_3_106
*1569 TAP_TAPCELL_ROW_3_107
*1570 TAP_TAPCELL_ROW_3_108
*1571 TAP_TAPCELL_ROW_3_109
*1572 TAP_TAPCELL_ROW_40_272
*1573 TAP_TAPCELL_ROW_40_273
*1574 TAP_TAPCELL_ROW_40_274
*1575 TAP_TAPCELL_ROW_40_275
*1576 TAP_TAPCELL_ROW_40_276
*1577 TAP_TAPCELL_ROW_41_277
*1578 TAP_TAPCELL_ROW_41_278
*1579 TAP_TAPCELL_ROW_41_279
*1580 TAP_TAPCELL_ROW_41_280
*1581 TAP_TAPCELL_ROW_42_281
*1582 TAP_TAPCELL_ROW_42_282
*1583 TAP_TAPCELL_ROW_42_283
*1584 TAP_TAPCELL_ROW_42_284
*1585 TAP_TAPCELL_ROW_42_285
*1586 TAP_TAPCELL_ROW_43_286
*1587 TAP_TAPCELL_ROW_43_287
*1588 TAP_TAPCELL_ROW_43_288
*1589 TAP_TAPCELL_ROW_43_289
*1590 TAP_TAPCELL_ROW_43_290
*1591 TAP_TAPCELL_ROW_43_291
*1592 TAP_TAPCELL_ROW_43_292
*1593 TAP_TAPCELL_ROW_43_293
*1594 TAP_TAPCELL_ROW_43_294
*1595 TAP_TAPCELL_ROW_4_110
*1596 TAP_TAPCELL_ROW_4_111
*1597 TAP_TAPCELL_ROW_4_112
*1598 TAP_TAPCELL_ROW_4_113
*1599 TAP_TAPCELL_ROW_4_114
*1600 TAP_TAPCELL_ROW_5_115
*1601 TAP_TAPCELL_ROW_5_116
*1602 TAP_TAPCELL_ROW_5_117
*1603 TAP_TAPCELL_ROW_5_118
*1604 TAP_TAPCELL_ROW_6_119
*1605 TAP_TAPCELL_ROW_6_120
*1606 TAP_TAPCELL_ROW_6_121
*1607 TAP_TAPCELL_ROW_6_122
*1608 TAP_TAPCELL_ROW_6_123
*1609 TAP_TAPCELL_ROW_7_124
*1610 TAP_TAPCELL_ROW_7_125
*1611 TAP_TAPCELL_ROW_7_126
*1612 TAP_TAPCELL_ROW_7_127
*1613 TAP_TAPCELL_ROW_8_128
*1614 TAP_TAPCELL_ROW_8_129
*1615 TAP_TAPCELL_ROW_8_130
*1616 TAP_TAPCELL_ROW_8_131
*1617 TAP_TAPCELL_ROW_8_132
*1618 TAP_TAPCELL_ROW_9_133
*1619 TAP_TAPCELL_ROW_9_134
*1620 TAP_TAPCELL_ROW_9_135
*1621 TAP_TAPCELL_ROW_9_136
*1622 _252_
*1623 _253_
*1624 _254_
*1625 _255_
*1626 _256_
*1627 _257_
*1628 _258_
*1629 _259_
*1630 _260_
*1631 _261_
*1632 _262_
*1633 _263_
*1634 _264_
*1635 _265_
*1636 _266_
*1637 _267_
*1638 _268_
*1639 _269_
*1640 _270_
*1641 _271_
*1642 _272_
*1643 _273_
*1644 _274_
*1645 _275_
*1646 _276_
*1647 _277_
*1648 _278_
*1649 _279_
*1650 _280_
*1651 _281_
*1652 _282_
*1653 _283_
*1654 _284_
*1655 _285_
*1656 _286_
*1657 _287_
*1658 _288_
*1659 _289_
*1660 _290_
*1661 _291_
*1662 _292_
*1663 _293_
*1664 _294_
*1665 _295_
*1666 _296_
*1667 _297_
*1668 _298_
*1669 _299_
*1670 _300_
*1671 _301_
*1672 _302_
*1673 _303_
*1674 _304_
*1675 _305_
*1676 _306_
*1677 _307_
*1678 _308_
*1679 _309_
*1680 _310_
*1681 _311_
*1682 _312_
*1683 _313_
*1684 _314_
*1685 _315_
*1686 _316_
*1687 _317_
*1688 _318_
*1689 _319_
*1690 _320_
*1691 _321_
*1692 _322_
*1693 _323_
*1694 _324_
*1695 _325_
*1696 _326_
*1697 _327_
*1698 _328_
*1699 _329_
*1700 _330_
*1701 _331_
*1702 _332_
*1703 _333_
*1704 _334_
*1705 _335_
*1706 _336_
*1707 _337_
*1708 _338_
*1709 _339_
*1710 _340_
*1711 _341_
*1712 _342_
*1713 _343_
*1714 _344_
*1715 _345_
*1716 _346_
*1717 _347_
*1718 _348_
*1719 _349_
*1720 _350_
*1721 _351_
*1722 _352_
*1723 _353_
*1724 _354_
*1725 _355_
*1726 _356_
*1727 _357_
*1728 _358_
*1729 _359_
*1730 _360_
*1731 _361_
*1732 _362_
*1733 _363_
*1734 _364_
*1735 _365_
*1736 _366_
*1737 _367_
*1738 _368_
*1739 _369_
*1740 _370_
*1741 _371_
*1742 _372_
*1743 _373_
*1744 _374_
*1745 _375_
*1746 _376_
*1747 _377_
*1748 _378_
*1749 _379_
*1750 _380_
*1751 _381_
*1752 _382_
*1753 _383_
*1754 _384_
*1755 _385_
*1756 _386_
*1757 _387_
*1758 _388_
*1759 _389_
*1760 _390_
*1761 _391_
*1762 _392_
*1763 _393_
*1764 _394_
*1765 _395_
*1766 _396_
*1767 _397_
*1768 _398_
*1769 _399_
*1770 _400_
*1771 _401_
*1772 _402_
*1773 _403_
*1774 _404_
*1775 _405_
*1776 _406_
*1777 _407_
*1778 _408_
*1779 _409_
*1780 _410_
*1781 _411_
*1782 _412_
*1783 _413_
*1784 _414_
*1785 _415_
*1786 _416_
*1787 _417_
*1788 _418_
*1789 _419_
*1790 _420_
*1791 _421_
*1792 _422_
*1793 _423_
*1794 _424_
*1795 _425_
*1796 _426_
*1797 _427_
*1798 _428_
*1799 _429_
*1800 _430_
*1801 _431_
*1802 _432_
*1803 _433_
*1804 _434_
*1805 _435_
*1806 _436_
*1807 _437_
*1808 _438_
*1809 _439_
*1810 _440_
*1811 _441_
*1812 _442_
*1813 _443_
*1814 _444_
*1815 _445_
*1816 _446_
*1817 _447_
*1818 _448_
*1819 _449_
*1820 _450_
*1821 _451_
*1822 _452_
*1823 _453_
*1824 _454_
*1825 _455_
*1826 _456_
*1827 _457_
*1828 _458_
*1829 _459_
*1830 _460_
*1831 _461_
*1832 _462_
*1833 _463_
*1834 _464_
*1835 _465_
*1836 _466_
*1837 _467_
*1838 _468_
*1839 _469_
*1840 _470_
*1841 _471_
*1842 _472_
*1843 _473_
*1844 _474_
*1845 _475_
*1846 _476_
*1847 _477_
*1848 _478_
*1849 _479_
*1850 _480_
*1851 _481_
*1852 _482_
*1853 _483_
*1854 _484_
*1855 _485_
*1856 _486_
*1857 _487_
*1858 _488_
*1859 _489_
*1860 _490_
*1861 _491_
*1862 _492_
*1863 _493_
*1864 _494_
*1865 _495_
*1866 _496_
*1867 _497_
*1868 _498_
*1869 _499_
*1870 _500_
*1871 _501_
*1872 _502_
*1873 _503_
*1874 _504_
*1875 _505_
*1876 _506_
*1877 _507_
*1878 _508_
*1879 _509_
*1880 _510_
*1881 _511_
*1882 _512_
*1883 _513_
*1884 _514_
*1885 _515_
*1886 _516_
*1887 _517_
*1888 _518_
*1889 _519_
*1890 _520_
*1891 _521_
*1892 _522_
*1893 _523_
*1894 _524_
*1895 _525_
*1896 _526_
*1897 _527_
*1898 _528_
*1899 _529_
*1900 _530_
*1901 _531_
*1902 _532_
*1903 _533_
*1904 _534_
*1905 _535_
*1906 _536_
*1907 _537_
*1908 _538_
*1909 _539_
*1910 _540_
*1911 _541_
*1912 _542_
*1913 _543_
*1914 _544_
*1915 _545_
*1916 _546_
*1917 _547_
*1918 _548_
*1919 _549_
*1920 _550_
*1921 _551_
*1922 _552_
*1923 _553_
*1924 _554_
*1925 _555_
*1926 _556_
*1927 _557_
*1928 _558_
*1929 _559_
*1930 _560_
*1931 _561_
*1932 _562_
*1933 _563_
*1934 _564_
*1935 _565_
*1936 _566_
*1937 _567_
*1938 _568_
*1939 _569_
*1940 _570_
*1941 _571_
*1942 _572_
*1943 _573_
*1944 _574_
*1945 _575_
*1946 _576_
*1947 _577_
*1948 _578_
*1949 _579_
*1950 _580_
*1951 _581_
*1952 _582_
*1953 _583_
*1954 _584_
*1955 _585_
*1956 _586_
*1957 _587_
*1958 _588_
*1959 _589_
*1960 _590_
*1961 _591_
*1962 _592_
*1963 _593_
*1964 _594_
*1965 _595_
*1966 _596_
*1967 _597_
*1968 _598_
*1969 _599_
*1970 _600_
*1971 _601_
*1972 _602_
*1973 _603_
*1974 _604_
*1975 _605_
*1976 _606_
*1977 _607_
*1978 _608_
*1979 _609_
*1980 _610_
*1981 _611_
*1982 _612_
*1983 _613_
*1984 _614_
*1985 _615_
*1986 _616_
*1987 _617_
*1988 _618_
*1989 _619_
*1990 _620_
*1991 _621_
*1992 _622_
*1993 _623_
*1994 _624_
*1995 _625_
*1996 _626_
*1997 _627_
*1998 _628_
*1999 _629_
*2000 _630_
*2001 _631_
*2002 _632_
*2003 _633_
*2004 _634_
*2005 _635_
*2006 _636_
*2007 _637_
*2008 _638_
*2009 _639_
*2010 _640_
*2011 _641_
*2012 _642_
*2013 _643_
*2014 _644_
*2015 _645_
*2016 _646_
*2017 _647_
*2018 _648_
*2019 _649_
*2020 _650_
*2021 _651_
*2022 _652_
*2023 _653_
*2024 _654_
*2025 _655_
*2026 _656_
*2027 _657_
*2028 _658_
*2029 _659_
*2030 _660_
*2031 _661_
*2032 _662_
*2033 _663_
*2034 _664_
*2035 _665_
*2036 _666_
*2037 _667_
*2038 _668_
*2039 _669_
*2040 _670_
*2041 _671_
*2042 _672_
*2043 _673_
*2044 _674_
*2045 _675_
*2046 _676_
*2047 _677_
*2048 _678_
*2049 _679_
*2050 _680_
*2051 _681_
*2052 _682_
*2053 _683_
*2054 _684_
*2055 _685_
*2056 _686_
*2057 _687_
*2058 _688_
*2059 _689_
*2060 _690_
*2061 _691_
*2062 _692_
*2063 _693_
*2064 _694_
*2065 _695_
*2066 _696_
*2067 _697_
*2068 clkbuf_0_rclk
*2069 clkbuf_0_wclk
*2070 clkbuf_1_0__f_rclk
*2071 clkbuf_1_1__f_rclk
*2072 clkbuf_4_0_0_wclk
*2073 clkbuf_4_10_0_wclk
*2074 clkbuf_4_11_0_wclk
*2075 clkbuf_4_12_0_wclk
*2076 clkbuf_4_13_0_wclk
*2077 clkbuf_4_14_0_wclk
*2078 clkbuf_4_15_0_wclk
*2079 clkbuf_4_1_0_wclk
*2080 clkbuf_4_2_0_wclk
*2081 clkbuf_4_3_0_wclk
*2082 clkbuf_4_4_0_wclk
*2083 clkbuf_4_5_0_wclk
*2084 clkbuf_4_6_0_wclk
*2085 clkbuf_4_7_0_wclk
*2086 clkbuf_4_8_0_wclk
*2087 clkbuf_4_9_0_wclk
*2088 clkload0
*2089 clkload1
*2090 clkload10
*2091 clkload11
*2092 clkload12
*2093 clkload13
*2094 clkload14
*2095 clkload15
*2096 clkload2
*2097 clkload3
*2098 clkload4
*2099 clkload5
*2100 clkload6
*2101 clkload7
*2102 clkload8
*2103 clkload9
*2104 input1
*2105 input10
*2106 input11
*2107 input12
*2108 input2
*2109 input3
*2110 input4
*2111 input5
*2112 input6
*2113 input7
*2114 input8
*2115 input9
*2116 max_cap23
*2117 output13
*2118 output14
*2119 output15
*2120 output16
*2121 output17
*2122 output18
*2123 output19
*2124 output20
*2125 output21
*2126 output22

*PORTS
empty O
full O
rclk I
rdata[0] O
rdata[1] O
rdata[2] O
rdata[3] O
rdata[4] O
rdata[5] O
rdata[6] O
rdata[7] O
ren I
rrst_n I
wclk I
wdata[0] I
wdata[1] I
wdata[2] I
wdata[3] I
wdata[4] I
wdata[5] I
wdata[6] I
wdata[7] I
wen I
wrst_n I

*D_NET *3 0.000659077
*CONN
*P empty O
*I *2117:X O *D sky130_fd_sc_hd__buf_1
*CAP
1 empty 0.000240076
2 *2117:X 0.000240076
3 empty *14:11 7.09547e-05
4 empty *15:13 7.20089e-05
5 empty *439:10 3.59619e-05
*RES
1 *2117:X empty 47.7832 
*END

*D_NET *4 0.000627487
*CONN
*P full O
*I *2118:X O *D sky130_fd_sc_hd__buf_1
*CAP
1 full 0.000274622
2 *2118:X 0.000274622
3 full *2106:A 7.82427e-05
4 full *2107:A 0
5 full *438:8 0
*RES
1 *2118:X full 48.4875 
*END

*D_NET *5 0.0077729
*CONN
*P rclk I
*I *2068:A I *D sky130_fd_sc_hd__clkbuf_16
*CAP
1 rclk 0.00285245
2 *2068:A 0.0002101
3 *5:9 0.00306255
4 *5:9 rdata[0] 7.82427e-05
5 *5:9 *1902:D 0
6 *5:9 *1907:RESET_B 0.000283088
7 *5:9 *1999:RESET_B 0.000161584
8 *5:9 *2033:CLK 0
9 *5:9 *15:13 6.53247e-05
10 *5:9 *418:12 0
11 *5:9 *418:65 0
12 *5:9 *418:80 0
13 *5:9 *446:82 8.4047e-05
14 *5:9 *446:84 0.000330135
15 *5:9 *446:86 0.000171906
16 *5:9 *459:10 6.02277e-06
17 *5:9 *459:16 0.00040936
18 *5:9 *481:8 5.80963e-05
19 *5:9 *494:10 0
*RES
1 rclk *5:9 39.2678 
2 *5:9 *2068:A 41.48 
*END

*D_NET *6 0.000456546
*CONN
*P rdata[0] O
*I *2119:X O *D sky130_fd_sc_hd__buf_1
*CAP
1 rdata[0] 0.000142478
2 *2119:X 0.000142478
3 rdata[0] rdata[5] 8.06147e-05
4 rdata[0] *441:10 1.27321e-05
5 *5:9 rdata[0] 7.82427e-05
*RES
1 *2119:X rdata[0] 47.0789 
*END

*D_NET *7 0.000857009
*CONN
*P rdata[1] O
*I *2120:X O *D sky130_fd_sc_hd__buf_1
*CAP
1 rdata[1] 0.000428504
2 *2120:X 0.000428504
3 rdata[1] rdata[6] 0
4 rdata[1] *2110:A 0
*RES
1 *2120:X rdata[1] 47.3214 
*END

*D_NET *8 0.000857009
*CONN
*P rdata[2] O
*I *2121:X O *D sky130_fd_sc_hd__buf_1
*CAP
1 rdata[2] 0.000428504
2 *2121:X 0.000428504
3 rdata[2] rdata[3] 0
*RES
1 *2121:X rdata[2] 47.3214 
*END

*D_NET *9 0.000857009
*CONN
*P rdata[3] O
*I *2122:X O *D sky130_fd_sc_hd__buf_1
*CAP
1 rdata[3] 0.000428504
2 *2122:X 0.000428504
3 rdata[3] rdata[7] 0
4 rdata[2] rdata[3] 0
*RES
1 *2122:X rdata[3] 47.3214 
*END

*D_NET *10 0.000857009
*CONN
*P rdata[4] O
*I *2123:X O *D sky130_fd_sc_hd__buf_1
*CAP
1 rdata[4] 0.000428504
2 *2123:X 0.000428504
3 rdata[4] rdata[6] 0
4 rdata[4] rdata[7] 0
*RES
1 *2123:X rdata[4] 47.3214 
*END

*D_NET *11 0.000465062
*CONN
*P rdata[5] O
*I *2124:X O *D sky130_fd_sc_hd__buf_1
*CAP
1 rdata[5] 0.000192223
2 *2124:X 0.000192223
3 rdata[5] *466:10 0
4 rdata[0] rdata[5] 8.06147e-05
*RES
1 *2124:X rdata[5] 47.4311 
*END

*D_NET *12 0.000857009
*CONN
*P rdata[6] O
*I *2125:X O *D sky130_fd_sc_hd__buf_1
*CAP
1 rdata[6] 0.000428504
2 *2125:X 0.000428504
3 rdata[1] rdata[6] 0
4 rdata[4] rdata[6] 0
*RES
1 *2125:X rdata[6] 47.3214 
*END

*D_NET *13 0.000857009
*CONN
*P rdata[7] O
*I *2126:X O *D sky130_fd_sc_hd__buf_1
*CAP
1 rdata[7] 0.000428504
2 *2126:X 0.000428504
3 rdata[3] rdata[7] 0
4 rdata[4] rdata[7] 0
*RES
1 *2126:X rdata[7] 47.3214 
*END

*D_NET *14 0.000925461
*CONN
*P ren I
*I *2104:A I *D sky130_fd_sc_hd__clkbuf_1
*CAP
1 ren 0.000427253
2 *2104:A 0
3 *14:11 0.000427253
4 *14:11 *485:8 0
5 empty *14:11 7.09547e-05
*RES
1 ren *14:11 27.2482 
2 *14:11 *2104:A 23 
*END

*D_NET *15 0.00175267
*CONN
*P rrst_n I
*I *2108:A I *D sky130_fd_sc_hd__clkbuf_8
*CAP
1 rrst_n 0.000774395
2 *2108:A 0
3 *15:13 0.000774395
4 *15:13 *439:10 6.65516e-05
5 empty *15:13 7.20089e-05
6 *5:9 *15:13 6.53247e-05
*RES
1 rrst_n *15:13 36.2352 
2 *15:13 *2108:A 23 
*END

*D_NET *16 0.0145706
*CONN
*P wclk I
*I *2069:A I *D sky130_fd_sc_hd__clkbuf_16
*CAP
1 wclk 0.000328125
2 *2069:A 0
3 *16:33 0.00126184
4 *16:27 0.00307498
5 *16:13 0.00406239
6 *16:11 0.00257738
7 *16:11 *23:17 5.59399e-05
8 *16:13 *23:17 0
9 *16:27 *1959:D 0.000146207
10 *16:27 *1983:D 0.000189714
11 *16:27 *2054:CLK 0.000103647
12 *16:27 *2054:D 9.95543e-06
13 *16:27 *396:14 2.18888e-05
14 *16:33 *1770:A1 2.4754e-05
15 *16:33 *2057:CLK 0.000171888
16 *16:33 *2057:D 1.64354e-05
17 *16:33 *332:12 6.88885e-05
18 *16:33 *332:25 9.85891e-05
19 *16:33 *416:14 0.00196125
20 *16:33 *453:109 0.000396683
*RES
1 wclk *16:11 9.55307 
2 *16:11 *16:13 51.0296 
3 *16:13 *16:27 48.2464 
4 *16:27 *16:33 32.2314 
5 *16:33 *2069:A 23 
*END

*D_NET *17 0.000814736
*CONN
*P wdata[0] I
*I *2109:A I *D sky130_fd_sc_hd__clkbuf_4
*CAP
1 wdata[0] 0.000394666
2 *2109:A 0.000394666
3 *2109:A *2113:A 0
4 *2109:A *451:8 2.54046e-05
5 *2109:A *456:18 0
*RES
1 wdata[0] *2109:A 46.3479 
*END

*D_NET *18 0.000929598
*CONN
*P wdata[1] I
*I *2110:A I *D sky130_fd_sc_hd__clkbuf_4
*CAP
1 wdata[1] 0.000464799
2 *2110:A 0.000464799
3 rdata[1] *2110:A 0
*RES
1 wdata[1] *2110:A 48.15 
*END

*D_NET *19 0.000941062
*CONN
*P wdata[2] I
*I *2111:A I *D sky130_fd_sc_hd__clkbuf_4
*CAP
1 wdata[2] 0.000451963
2 *2111:A 0.000451963
3 *2111:A *2114:A 0
4 *2111:A *456:10 3.71369e-05
*RES
1 wdata[2] *2111:A 47.4457 
*END

*D_NET *20 0.000929598
*CONN
*P wdata[3] I
*I *2112:A I *D sky130_fd_sc_hd__clkbuf_4
*CAP
1 wdata[3] 0.000464799
2 *2112:A 0.000464799
*RES
1 wdata[3] *2112:A 48.15 
*END

*D_NET *21 0.00143275
*CONN
*P wdata[4] I
*I *2113:A I *D sky130_fd_sc_hd__clkbuf_4
*CAP
1 wdata[4] 0.000456686
2 *2113:A 0.000456686
3 *2113:A *1826:A0 5.50049e-05
4 *2113:A *453:14 0.000148524
5 *2113:A *455:14 0.000315852
6 *2109:A *2113:A 0
*RES
1 wdata[4] *2113:A 49.8279 
*END

*D_NET *22 0.000931875
*CONN
*P wdata[5] I
*I *2114:A I *D sky130_fd_sc_hd__clkbuf_4
*CAP
1 wdata[5] 0.000465938
2 *2114:A 0.000465938
3 *2111:A *2114:A 0
*RES
1 wdata[5] *2114:A 47.4457 
*END

*D_NET *23 0.000731402
*CONN
*P wdata[6] I
*I *2115:A I *D sky130_fd_sc_hd__clkbuf_4
*CAP
1 wdata[6] 0.000337731
2 *2115:A 0
3 *23:17 0.000337731
4 *16:11 *23:17 5.59399e-05
5 *16:13 *23:17 0
*RES
1 wdata[6] *23:17 27.6348 
2 *23:17 *2115:A 23 
*END

*D_NET *24 0.000761644
*CONN
*P wdata[7] I
*I *2105:A I *D sky130_fd_sc_hd__clkbuf_4
*CAP
1 wdata[7] 0.000303134
2 *2105:A 0.000303134
3 *2105:A *267:95 0.000155375
*RES
1 wdata[7] *2105:A 48.9255 
*END

*D_NET *25 0.00063993
*CONN
*P wen I
*I *2106:A I *D sky130_fd_sc_hd__clkbuf_1
*CAP
1 wen 0.000280844
2 *2106:A 0.000280844
3 *2106:A *1673:B 0
4 *2106:A *440:8 0
5 full *2106:A 7.82427e-05
*RES
1 wen *2106:A 48.8397 
*END

*D_NET *26 0.000568612
*CONN
*P wrst_n I
*I *2107:A I *D sky130_fd_sc_hd__clkbuf_8
*CAP
1 wrst_n 0.000284306
2 *2107:A 0.000284306
3 full *2107:A 0
*RES
1 wrst_n *2107:A 48.1354 
*END

*D_NET *27 0.00576554
*CONN
*I *1912:D I *D sky130_fd_sc_hd__dfxtp_1
*I *1723:X O *D sky130_fd_sc_hd__a22o_1
*CAP
1 *1912:D 0.00104969
2 *1723:X 0.00112782
3 *27:12 0.00109588
4 *27:6 0.00117401
5 *1912:D *1912:CLK 0.000354122
6 *1912:D *477:10 4.9662e-05
7 *1912:D *477:32 0.000672526
8 *27:6 *418:160 1.59094e-05
9 *27:12 *476:14 0.000114074
10 *27:12 *502:16 0.000111852
*RES
1 *1723:X *27:6 36.9614 
2 *27:6 *27:12 31.5536 
3 *27:12 *1912:D 43.4709 
*END

*D_NET *28 0.00251678
*CONN
*I *1913:D I *D sky130_fd_sc_hd__dfxtp_1
*I *1731:X O *D sky130_fd_sc_hd__a22o_1
*CAP
1 *1913:D 0
2 *1731:X 0
3 *28:12 0.000695322
4 *28:6 0.000695322
5 *28:12 *1726:A0 9.88575e-05
6 *28:12 *1726:A1 0.000223043
7 *28:12 *1727:A2 0
8 *28:12 *1727:B1 0
9 *28:12 *1751:A1 0.000102732
10 *28:12 *243:8 0.000116224
11 *28:12 *246:10 0
12 *28:12 *392:10 8.16356e-05
13 *28:12 *408:16 1.62015e-05
14 *28:12 *408:30 0
15 *28:12 *408:570 0.000487443
16 *28:12 *409:8 0
17 *28:12 *410:24 0
*RES
1 *1731:X *28:6 38 
2 *28:6 *28:12 31.908 
3 *28:12 *1913:D 23 
*END

*D_NET *29 0.0113744
*CONN
*I *1914:D I *D sky130_fd_sc_hd__dfxtp_1
*I *1739:X O *D sky130_fd_sc_hd__a22o_1
*CAP
1 *1914:D 0
2 *1739:X 0.00137987
3 *29:18 0.000939318
4 *29:12 0.00190624
5 *29:6 0.00234679
6 *29:6 *163:32 6.17437e-06
7 *29:6 *270:30 0.00170888
8 *29:12 *62:10 1.12487e-05
9 *29:12 *257:8 0.000124169
10 *29:12 *260:10 0.000467979
11 *29:12 *267:71 0.000504599
12 *29:12 *314:8 0.000422369
13 *29:12 *407:43 0.000262797
14 *29:12 *424:25 0.000194309
15 *29:12 *424:29 0.000425521
16 *29:18 *1914:CLK 7.48422e-05
17 *29:18 *30:18 0.000481177
18 *29:18 *257:8 1.93593e-05
19 *29:18 *260:10 2.24608e-05
20 *29:18 *267:71 5.83085e-05
21 *29:18 *417:47 1.7992e-05
22 *29:18 *445:10 0
*RES
1 *1739:X *29:6 44.1079 
2 *29:6 *29:12 42.7054 
3 *29:12 *29:18 34.6734 
4 *29:18 *1914:D 23 
*END

*D_NET *30 0.00298221
*CONN
*I *1915:D I *D sky130_fd_sc_hd__dfxtp_1
*I *1747:X O *D sky130_fd_sc_hd__a22o_1
*CAP
1 *1915:D 0
2 *1747:X 9.85185e-05
3 *30:18 0.000533246
4 *30:8 0.000631765
5 *30:8 *1747:B1 9.67842e-05
6 *30:8 *417:12 1.21972e-05
7 *30:18 *1918:CLK 3.69133e-05
8 *30:18 *260:10 3.70187e-05
9 *30:18 *417:16 9.26005e-05
10 *30:18 *417:23 0.000551882
11 *30:18 *417:36 0.000243587
12 *30:18 *417:47 0.000166522
13 *29:18 *30:18 0.000481177
*RES
1 *1747:X *30:8 39.5743 
2 *30:8 *30:18 30.1887 
3 *30:18 *1915:D 23 
*END

*D_NET *31 0.00369422
*CONN
*I *1916:D I *D sky130_fd_sc_hd__dfxtp_1
*I *1636:X O *D sky130_fd_sc_hd__a22o_1
*CAP
1 *1916:D 0
2 *1636:X 4.21149e-05
3 *31:14 0.00118587
4 *31:8 0.00122798
5 *31:8 *1636:A1 1.73399e-05
6 *31:14 *1916:CLK 0.000126403
7 *31:14 *34:14 0
8 *31:14 *54:10 0.000276697
9 *31:14 *164:71 9.74132e-05
10 *31:14 *254:8 0.000369
11 *31:14 *264:68 3.53743e-05
12 *31:14 *264:95 4.63353e-05
13 *31:14 *266:35 3.12704e-05
14 *31:14 *270:113 9.04083e-05
15 *31:14 *407:51 9.28842e-05
16 *31:14 *407:203 0
17 *31:14 *408:555 0
18 *31:14 *424:65 0
19 *31:14 *424:71 0
20 *31:14 *454:141 5.51335e-05
*RES
1 *1636:X *31:8 38.6214 
2 *31:8 *31:14 39.1166 
3 *31:14 *1916:D 23 
*END

*D_NET *32 0.000528007
*CONN
*I *1917:D I *D sky130_fd_sc_hd__dfxtp_1
*I *1644:X O *D sky130_fd_sc_hd__a22o_1
*CAP
1 *1917:D 0.000169897
2 *1644:X 0.000169897
3 *1917:D *178:8 9.1702e-06
4 *1917:D *267:26 0.000179042
*RES
1 *1644:X *1917:D 49.3402 
*END

*D_NET *33 0.00903904
*CONN
*I *1918:D I *D sky130_fd_sc_hd__dfxtp_1
*I *1652:X O *D sky130_fd_sc_hd__a22o_1
*CAP
1 *1918:D 1.26271e-05
2 *1652:X 0.000571507
3 *33:18 0.00188085
4 *33:12 0.00243973
5 *1918:D *425:107 1.64354e-05
6 *33:12 *1652:B2 5.50049e-05
7 *33:12 *34:6 0.000838079
8 *33:12 *185:8 0.000519288
9 *33:12 *424:65 2.1136e-05
10 *33:12 *424:71 5.50106e-05
11 *33:18 *2126:A 7.41334e-05
12 *33:18 *266:19 0.000167039
13 *33:18 *266:31 0.000146206
14 *33:18 *270:89 0.000401816
15 *33:18 *417:12 0.00133841
16 *33:18 *424:65 0.000484539
17 *33:18 *424:71 1.72202e-05
18 *33:18 *425:107 0
*RES
1 *1652:X *33:12 38.3286 
2 *33:12 *33:18 48.93 
3 *33:18 *1918:D 38.1916 
*END

*D_NET *34 0.00524256
*CONN
*I *1919:D I *D sky130_fd_sc_hd__dfxtp_1
*I *1660:X O *D sky130_fd_sc_hd__a22o_1
*CAP
1 *1919:D 0
2 *1660:X 0.000985613
3 *34:14 0.00071654
4 *34:6 0.00170215
5 *34:6 *1941:D 4.9054e-06
6 *34:6 *424:65 0.000115857
7 *34:6 *424:71 4.06849e-05
8 *34:14 *1919:CLK 9.5877e-05
9 *34:14 *262:36 0.000109077
10 *34:14 *270:113 0.00012823
11 *34:14 *417:23 0.000260837
12 *34:14 *417:36 0.000115289
13 *34:14 *417:47 1.12487e-05
14 *34:14 *424:65 0.000118174
15 *31:14 *34:14 0
16 *33:12 *34:6 0.000838079
*RES
1 *1660:X *34:6 38.3907 
2 *34:6 *34:14 45.8464 
3 *34:14 *1919:D 23 
*END

*D_NET *35 0.000701743
*CONN
*I *1894:D I *D sky130_fd_sc_hd__dfxtp_1
*I *1750:X O *D sky130_fd_sc_hd__mux2_1
*CAP
1 *1894:D 9.8283e-05
2 *1750:X 0.000252589
3 *35:8 0.000350872
4 *35:8 *260:10 0
5 *35:8 *399:10 0
6 *35:8 *407:265 0
*RES
1 *1750:X *35:8 42.3707 
2 *35:8 *1894:D 39.6209 
*END

*D_NET *36 0.000634719
*CONN
*I *1895:D I *D sky130_fd_sc_hd__dfxtp_1
*I *1751:X O *D sky130_fd_sc_hd__mux2_1
*CAP
1 *1895:D 6.33428e-05
2 *1751:X 0.000188644
3 *36:10 0.000251987
4 *36:10 *1751:A1 0.000130745
5 *36:10 *400:10 0
6 *36:10 *452:10 0
*RES
1 *1751:X *36:10 41.1279 
2 *36:10 *1895:D 38.9373 
*END

*D_NET *37 0.0013661
*CONN
*I *1896:D I *D sky130_fd_sc_hd__dfxtp_1
*I *1752:X O *D sky130_fd_sc_hd__mux2_1
*CAP
1 *1896:D 0.000127271
2 *1752:X 0.000286475
3 *37:8 0.000413746
4 *37:8 *262:115 0.000163757
5 *37:8 *289:27 6.48142e-05
6 *37:8 *407:89 0.000166281
7 *37:8 *408:443 0.00014376
*RES
1 *1752:X *37:8 45.1879 
2 *37:8 *1896:D 39.6209 
*END

*D_NET *38 0.000305827
*CONN
*I *1897:D I *D sky130_fd_sc_hd__dfxtp_1
*I *1753:X O *D sky130_fd_sc_hd__mux2_1
*CAP
1 *1897:D 4.76931e-05
2 *1753:X 7.74101e-05
3 *38:8 0.000125103
4 *38:8 *262:51 0
5 *38:8 *402:10 0
6 *38:8 *454:10 5.56203e-05
*RES
1 *1753:X *38:8 39.5536 
2 *38:8 *1897:D 38.668 
*END

*D_NET *39 0.000985274
*CONN
*I *1898:D I *D sky130_fd_sc_hd__dfxtp_1
*I *1754:X O *D sky130_fd_sc_hd__mux2_1
*CAP
1 *1898:D 0.000209897
2 *1754:X 9.67085e-05
3 *39:8 0.000306605
4 *1898:D *1799:A1 0.000187731
5 *1898:D *299:27 9.91895e-05
6 *39:8 *266:71 8.51432e-05
7 *39:8 *395:10 0
8 *39:8 *403:14 0
*RES
1 *1754:X *39:8 40.2579 
2 *39:8 *1898:D 42.4795 
*END

*D_NET *40 0.000661807
*CONN
*I *1899:D I *D sky130_fd_sc_hd__dfxtp_1
*I *1755:X O *D sky130_fd_sc_hd__mux2_1
*CAP
1 *1899:D 8.80966e-05
2 *1755:X 0.000126229
3 *40:8 0.000214326
4 *1899:D *433:16 0.000233156
5 *40:8 *1755:A1 0
*RES
1 *1755:X *40:8 40.2579 
2 *40:8 *1899:D 40.5737 
*END

*D_NET *41 0.000414708
*CONN
*I *1900:D I *D sky130_fd_sc_hd__dfxtp_1
*I *1756:X O *D sky130_fd_sc_hd__mux2_1
*CAP
1 *1900:D 6.65161e-05
2 *1756:X 0.000110804
3 *41:8 0.00017732
4 *1900:D *457:172 6.00679e-05
5 *41:8 *301:10 0
6 *41:8 *457:178 0
*RES
1 *1756:X *41:8 39.9057 
2 *41:8 *1900:D 39.6209 
*END

*D_NET *42 0.00149409
*CONN
*I *1901:D I *D sky130_fd_sc_hd__dfxtp_1
*I *1757:X O *D sky130_fd_sc_hd__mux2_1
*CAP
1 *1901:D 0.000333403
2 *1757:X 0.000326919
3 *42:10 0.000660322
4 *42:10 *294:27 0
5 *42:10 *436:21 0
6 *42:10 *436:25 0.000173452
*RES
1 *1757:X *42:10 43.0336 
2 *42:10 *1901:D 43.4323 
*END

*D_NET *43 0.0017661
*CONN
*I *1930:D I *D sky130_fd_sc_hd__dfxtp_1
*I *1759:X O *D sky130_fd_sc_hd__mux2_1
*CAP
1 *1930:D 3.8526e-05
2 *1759:X 0.000345028
3 *43:8 0.000383554
4 *1930:D *264:16 0.000143599
5 *1930:D *422:12 0.000143599
6 *43:8 *1759:A1 8.62876e-05
7 *43:8 *327:12 8.4047e-05
8 *43:8 *416:120 0
9 *43:8 *451:158 0.000398655
10 *43:8 *451:169 0.000142808
*RES
1 *1759:X *43:8 46.2443 
2 *43:8 *1930:D 39.6209 
*END

*D_NET *44 0.00157121
*CONN
*I *1931:D I *D sky130_fd_sc_hd__dfxtp_1
*I *1760:X O *D sky130_fd_sc_hd__mux2_1
*CAP
1 *1931:D 0
2 *1760:X 0.000287018
3 *44:12 0.000287018
4 *44:12 *163:73 0.000356424
5 *44:12 *320:6 7.8215e-05
6 *44:12 *407:43 3.83269e-05
7 *44:12 *452:150 0
8 *44:12 *454:141 0.000524204
*RES
1 *1760:X *44:12 31.353 
2 *44:12 *1931:D 23 
*END

*D_NET *45 0.00119947
*CONN
*I *1932:D I *D sky130_fd_sc_hd__dfxtp_1
*I *1761:X O *D sky130_fd_sc_hd__mux2_1
*CAP
1 *1932:D 6.23676e-05
2 *1761:X 0.000203972
3 *45:10 0.00026634
4 *1932:D *1932:CLK 6.17437e-06
5 *1932:D *1980:D 0.000124702
6 *45:10 *1819:S 0.00031842
7 *45:10 *267:32 5.67058e-05
8 *45:10 *433:10 7.03766e-05
9 *45:10 *433:76 9.04083e-05
*RES
1 *1761:X *45:10 42.9921 
2 *45:10 *1932:D 39.4137 
*END

*D_NET *46 0.000401117
*CONN
*I *1933:D I *D sky130_fd_sc_hd__dfxtp_1
*I *1762:X O *D sky130_fd_sc_hd__mux2_1
*CAP
1 *1933:D 7.77916e-05
2 *1762:X 7.23375e-05
3 *46:8 0.000150129
4 *1933:D *407:61 4.52283e-05
5 *46:8 *163:88 0
6 *46:8 *407:159 5.56306e-05
*RES
1 *1762:X *46:8 39.5536 
2 *46:8 *1933:D 39.6209 
*END

*D_NET *47 0.000571039
*CONN
*I *1934:D I *D sky130_fd_sc_hd__dfxtp_1
*I *1763:X O *D sky130_fd_sc_hd__mux2_1
*CAP
1 *1934:D 8.8687e-05
2 *1763:X 8.73502e-05
3 *47:8 0.000176037
4 *1934:D *231:55 5.10613e-05
5 *47:8 *231:94 8.62783e-05
6 *47:8 *323:14 0
7 *47:8 *409:166 8.16253e-05
*RES
1 *1763:X *47:8 40.2579 
2 *47:8 *1934:D 39.6209 
*END

*D_NET *48 0.000597257
*CONN
*I *1935:D I *D sky130_fd_sc_hd__dfxtp_1
*I *1764:X O *D sky130_fd_sc_hd__mux2_1
*CAP
1 *1935:D 0.000167289
2 *1764:X 7.42936e-05
3 *48:8 0.000241582
4 *48:8 *197:14 0.000114092
5 *48:8 *409:174 0
*RES
1 *1764:X *48:8 39.5536 
2 *48:8 *1935:D 40.5737 
*END

*D_NET *49 0.000876891
*CONN
*I *1936:D I *D sky130_fd_sc_hd__dfxtp_1
*I *1765:X O *D sky130_fd_sc_hd__mux2_1
*CAP
1 *1936:D 0.000310104
2 *1765:X 5.34725e-05
3 *49:8 0.000363577
4 *49:8 *231:80 3.56537e-05
5 *49:8 *457:29 0.000114083
*RES
1 *1765:X *49:8 39.5536 
2 *49:8 *1936:D 42.4795 
*END

*D_NET *50 0.000828471
*CONN
*I *1937:D I *D sky130_fd_sc_hd__dfxtp_1
*I *1766:X O *D sky130_fd_sc_hd__mux2_1
*CAP
1 *1937:D 0.000117549
2 *1766:X 0.000198593
3 *50:8 0.000316141
4 *50:8 *270:47 0
5 *50:8 *457:31 0.000196188
*RES
1 *1766:X *50:8 43.075 
2 *50:8 *1937:D 40.0973 
*END

*D_NET *51 0.000773141
*CONN
*I *1938:D I *D sky130_fd_sc_hd__dfxtp_1
*I *1768:X O *D sky130_fd_sc_hd__mux2_1
*CAP
1 *1938:D 9.8303e-05
2 *1768:X 4.72838e-05
3 *51:8 0.000145587
4 *1938:D *1938:CLK 0.000125587
5 *1938:D *311:10 0.00012388
6 *1938:D *451:177 2.31797e-05
7 *51:8 *59:8 8.85189e-05
8 *51:8 *264:123 6.7177e-06
9 *51:8 *410:30 0.000114083
*RES
1 *1768:X *51:8 39.5536 
2 *51:8 *1938:D 40.3666 
*END

*D_NET *52 0.000411702
*CONN
*I *1939:D I *D sky130_fd_sc_hd__dfxtp_1
*I *1769:X O *D sky130_fd_sc_hd__mux2_1
*CAP
1 *1939:D 0.000142714
2 *1769:X 0.000142714
3 *1939:D *1769:A1 0.000126273
*RES
1 *1769:X *1939:D 48.3873 
*END

*D_NET *53 0.00152329
*CONN
*I *1940:D I *D sky130_fd_sc_hd__dfxtp_1
*I *1770:X O *D sky130_fd_sc_hd__mux2_1
*CAP
1 *1940:D 8.6848e-05
2 *1770:X 0.000127463
3 *53:8 0.000214311
4 *1940:D *263:44 0.000222729
5 *1940:D *456:108 0.000222729
6 *53:8 *1734:A3 0.000136486
7 *53:8 *329:10 0.000188916
8 *53:8 *416:66 0.000323803
*RES
1 *1770:X *53:8 42.3707 
2 *53:8 *1940:D 40.5737 
*END

*D_NET *54 0.00131015
*CONN
*I *1941:D I *D sky130_fd_sc_hd__dfxtp_1
*I *1771:X O *D sky130_fd_sc_hd__mux2_1
*CAP
1 *1941:D 9.26771e-06
2 *1771:X 0.00043741
3 *54:10 0.000446678
4 *1941:D *424:65 1.64354e-05
5 *54:10 *306:8 4.08641e-05
6 *54:10 *314:22 2.11827e-05
7 *54:10 *330:29 5.67058e-05
8 *54:10 *407:203 0
9 *54:10 *409:160 0
10 *54:10 *410:49 0
11 *31:14 *54:10 0.000276697
12 *34:6 *1941:D 4.9054e-06
*RES
1 *1771:X *54:10 46.5136 
2 *54:10 *1941:D 38.1916 
*END

*D_NET *55 0.00210905
*CONN
*I *1942:D I *D sky130_fd_sc_hd__dfxtp_1
*I *1772:X O *D sky130_fd_sc_hd__mux2_1
*CAP
1 *1942:D 0.000211109
2 *1772:X 0.000289319
3 *55:10 0.000500428
4 *55:10 *164:71 0.00058375
5 *55:10 *176:16 0
6 *55:10 *264:20 1.39431e-05
7 *55:10 *265:34 0.000374011
8 *55:10 *265:55 0.000136486
*RES
1 *1772:X *55:10 46.5136 
2 *55:10 *1942:D 41.0502 
*END

*D_NET *56 0.000704828
*CONN
*I *1943:D I *D sky130_fd_sc_hd__dfxtp_1
*I *1773:X O *D sky130_fd_sc_hd__mux2_1
*CAP
1 *1943:D 7.79771e-05
2 *1773:X 5.23918e-05
3 *56:8 0.000130369
4 *1943:D *178:8 0.000185123
5 *1943:D *316:14 3.71228e-05
6 *56:8 *263:86 0.000110922
7 *56:8 *455:104 0.000110922
*RES
1 *1773:X *56:8 39.5536 
2 *56:8 *1943:D 40.0973 
*END

*D_NET *57 0.00117864
*CONN
*I *1944:D I *D sky130_fd_sc_hd__dfxtp_1
*I *1774:X O *D sky130_fd_sc_hd__mux2_1
*CAP
1 *1944:D 0
2 *1774:X 0.000300594
3 *57:8 0.000300594
4 *57:8 *457:138 0.000577448
*RES
1 *1774:X *57:8 29.8823 
2 *57:8 *1944:D 23 
*END

*D_NET *58 0.00160023
*CONN
*I *1945:D I *D sky130_fd_sc_hd__dfxtp_1
*I *1775:X O *D sky130_fd_sc_hd__mux2_1
*CAP
1 *1945:D 4.52434e-05
2 *1775:X 0.000190094
3 *58:8 0.000235338
4 *1945:D *436:184 8.79002e-05
5 *58:8 *190:18 0.000592303
6 *58:8 *408:402 0.000320967
7 *58:8 *408:484 0.00012838
*RES
1 *1775:X *58:8 45.8921 
2 *58:8 *1945:D 38.9943 
*END

*D_NET *59 0.00154587
*CONN
*I *1946:D I *D sky130_fd_sc_hd__dfxtp_1
*I *1777:X O *D sky130_fd_sc_hd__mux2_1
*CAP
1 *1946:D 0.000102426
2 *1777:X 0.000185841
3 *59:8 0.000288267
4 *1946:D *264:16 0.000184471
5 *1946:D *416:113 0.000268817
6 *59:8 *264:102 0.000116331
7 *59:8 *311:10 0.000161121
8 *59:8 *410:30 0.000150077
9 *51:8 *59:8 8.85189e-05
*RES
1 *1777:X *59:8 43.4271 
2 *59:8 *1946:D 41.0502 
*END

*D_NET *60 0.000550213
*CONN
*I *1947:D I *D sky130_fd_sc_hd__dfxtp_1
*I *1778:X O *D sky130_fd_sc_hd__mux2_1
*CAP
1 *1947:D 8.03168e-05
2 *1778:X 7.87371e-05
3 *60:8 0.000159054
4 *1947:D *240:10 5.2426e-05
5 *60:8 *163:114 4.07715e-05
6 *60:8 *240:10 8.62876e-05
7 *60:8 *265:110 5.26204e-05
*RES
1 *1778:X *60:8 40.2579 
2 *60:8 *1947:D 39.6209 
*END

*D_NET *61 0.00236451
*CONN
*I *1948:D I *D sky130_fd_sc_hd__dfxtp_1
*I *1779:X O *D sky130_fd_sc_hd__mux2_1
*CAP
1 *1948:D 0.00017133
2 *1779:X 0.00037768
3 *61:8 0.000549011
4 *1948:D *177:10 7.64987e-05
5 *61:8 *2087:A 5.21127e-05
6 *61:8 *407:386 0.000344356
7 *61:8 *408:421 0
8 *61:8 *416:66 5.65491e-05
9 *61:8 *436:75 0.000736977
*RES
1 *1779:X *61:8 48.005 
2 *61:8 *1948:D 41.0502 
*END

*D_NET *62 0.00145228
*CONN
*I *1949:D I *D sky130_fd_sc_hd__dfxtp_1
*I *1780:X O *D sky130_fd_sc_hd__mux2_1
*CAP
1 *1949:D 9.18354e-05
2 *1780:X 0.000170372
3 *62:10 0.000262208
4 *1949:D *407:51 0.000162955
5 *1949:D *410:49 0.000206435
6 *62:10 *1742:S1 0.000139352
7 *62:10 *267:71 0.000216721
8 *62:10 *407:43 0.000191148
9 *29:12 *62:10 1.12487e-05
*RES
1 *1780:X *62:10 42.5364 
2 *62:10 *1949:D 40.3666 
*END

*D_NET *63 0.00039958
*CONN
*I *1950:D I *D sky130_fd_sc_hd__dfxtp_1
*I *1781:X O *D sky130_fd_sc_hd__mux2_1
*CAP
1 *1950:D 2.74533e-05
2 *1781:X 6.4803e-05
3 *63:8 9.22564e-05
4 *1950:D *307:27 5.73018e-05
5 *1950:D *408:384 1.4721e-05
6 *63:8 *264:68 3.21223e-05
7 *63:8 *417:16 0.000110922
*RES
1 *1781:X *63:8 39.5536 
2 *63:8 *1950:D 38.668 
*END

*D_NET *64 0.00050124
*CONN
*I *1951:D I *D sky130_fd_sc_hd__dfxtp_1
*I *1782:X O *D sky130_fd_sc_hd__mux2_1
*CAP
1 *1951:D 0.000184655
2 *1782:X 0.000184655
3 *1951:D *1782:A0 2.03343e-05
4 *1951:D *1951:CLK 0.000111596
*RES
1 *1782:X *1951:D 49.0088 
*END

*D_NET *65 0.00124628
*CONN
*I *1952:D I *D sky130_fd_sc_hd__dfxtp_1
*I *1783:X O *D sky130_fd_sc_hd__mux2_1
*CAP
1 *1952:D 0.000118695
2 *1783:X 0.000269586
3 *65:10 0.000388281
4 *1952:D *2090:A 0.000126488
5 *1952:D *421:82 4.5051e-05
6 *65:10 *1783:A0 5.50106e-05
7 *65:10 *190:18 0
8 *65:10 *193:10 1.83667e-05
9 *65:10 *197:20 5.76048e-05
10 *65:10 *317:14 0
11 *65:10 *416:136 6.61923e-05
12 *65:10 *421:10 8.51225e-05
13 *65:10 *421:97 1.58805e-05
*RES
1 *1783:X *65:10 44.0486 
2 *65:10 *1952:D 40.3666 
*END

*D_NET *66 0.000730904
*CONN
*I *1953:D I *D sky130_fd_sc_hd__dfxtp_1
*I *1784:X O *D sky130_fd_sc_hd__mux2_1
*CAP
1 *1953:D 1.12314e-05
2 *1784:X 0.000136765
3 *66:8 0.000147997
4 *1953:D *231:55 5.34647e-06
5 *66:8 *190:18 0.000326053
6 *66:8 *265:69 0.00010351
*RES
1 *1784:X *66:8 42.3707 
2 *66:8 *1953:D 38.1916 
*END

*D_NET *67 0.00138278
*CONN
*I *1954:D I *D sky130_fd_sc_hd__dfxtp_1
*I *1786:X O *D sky130_fd_sc_hd__mux2_1
*CAP
1 *1954:D 0.000272529
2 *1786:X 0.000171704
3 *67:10 0.000444233
4 *1954:D *265:26 0.000208149
5 *1954:D *267:10 5.50049e-05
6 *1954:D *295:8 5.41288e-05
7 *67:10 *1716:A1 0.000161121
8 *67:10 *451:127 1.59094e-05
*RES
1 *1786:X *67:10 40.8793 
2 *67:10 *1954:D 44.8616 
*END

*D_NET *68 0.00118852
*CONN
*I *1955:D I *D sky130_fd_sc_hd__dfxtp_1
*I *1787:X O *D sky130_fd_sc_hd__mux2_1
*CAP
1 *1955:D 0
2 *1787:X 0.000206168
3 *68:8 0.000206168
4 *68:8 *1955:CLK 0.00027663
5 *68:8 *270:105 0.00015763
6 *68:8 *270:149 0.000125213
7 *68:8 *408:547 0.000216714
*RES
1 *1787:X *68:8 30.2345 
2 *68:8 *1955:D 23 
*END

*D_NET *69 0.00114484
*CONN
*I *1956:D I *D sky130_fd_sc_hd__dfxtp_1
*I *1788:X O *D sky130_fd_sc_hd__mux2_1
*CAP
1 *1956:D 0.000139172
2 *1788:X 0.000161062
3 *69:8 0.000300234
4 *1956:D *433:93 0.000104017
5 *69:8 *77:8 0.000247678
6 *69:8 *453:143 0.000192681
*RES
1 *1788:X *69:8 43.075 
2 *69:8 *1956:D 41.0502 
*END

*D_NET *70 0.000431237
*CONN
*I *1957:D I *D sky130_fd_sc_hd__dfxtp_1
*I *1789:X O *D sky130_fd_sc_hd__mux2_1
*CAP
1 *1957:D 1.13183e-05
2 *1789:X 0.000143541
3 *70:10 0.000154859
4 *1957:D *270:127 1.64354e-05
5 *70:10 *1740:A1 0
6 *70:10 *1820:A0 0
7 *70:10 *1957:CLK 4.83778e-05
8 *70:10 *266:49 5.67058e-05
9 *70:10 *298:12 0
10 *70:10 *402:10 0
*RES
1 *1789:X *70:10 40.8793 
2 *70:10 *1957:D 38.1916 
*END

*D_NET *71 0.00136329
*CONN
*I *1958:D I *D sky130_fd_sc_hd__dfxtp_1
*I *1790:X O *D sky130_fd_sc_hd__mux2_1
*CAP
1 *1958:D 0.00014944
2 *1790:X 0.000391131
3 *71:8 0.00054057
4 *1958:D *1958:CLK 0.000146207
5 *71:8 *1790:A0 0
6 *71:8 *1966:CLK 5.93381e-05
7 *71:8 *420:59 7.66085e-05
8 *71:8 *455:175 0
*RES
1 *1790:X *71:8 45.8921 
2 *71:8 *1958:D 41.0502 
*END

*D_NET *72 0.000961064
*CONN
*I *1959:D I *D sky130_fd_sc_hd__dfxtp_1
*I *1791:X O *D sky130_fd_sc_hd__mux2_1
*CAP
1 *1959:D 6.80953e-05
2 *1791:X 0.000282287
3 *72:8 0.000350383
4 *72:8 *1967:CLK 0
5 *72:8 *80:8 0.000114092
6 *72:8 *300:8 0
7 *72:8 *433:22 0
8 *16:27 *1959:D 0.000146207
*RES
1 *1791:X *72:8 43.4271 
2 *72:8 *1959:D 39.6209 
*END

*D_NET *73 0.00159166
*CONN
*I *1960:D I *D sky130_fd_sc_hd__dfxtp_1
*I *1792:X O *D sky130_fd_sc_hd__mux2_1
*CAP
1 *1960:D 9.098e-05
2 *1792:X 0.000478441
3 *73:8 0.000569421
4 *1960:D *1960:CLK 0.000189681
5 *73:8 *1944:CLK 0
6 *73:8 *1960:CLK 0
7 *73:8 *293:12 0
8 *73:8 *421:33 0
9 *73:8 *457:10 5.21024e-05
10 *73:8 *457:12 9.88678e-05
11 *73:8 *457:172 0.000112169
*RES
1 *1792:X *73:8 48.005 
2 *73:8 *1960:D 40.0973 
*END

*D_NET *74 0.000506687
*CONN
*I *1961:D I *D sky130_fd_sc_hd__dfxtp_1
*I *1793:X O *D sky130_fd_sc_hd__mux2_1
*CAP
1 *1961:D 0.000130787
2 *1793:X 6.55153e-05
3 *74:8 0.000196302
4 *74:8 *420:22 0
5 *74:8 *436:10 1.14452e-05
6 *74:8 *436:21 0.000102638
*RES
1 *1793:X *74:8 39.5536 
2 *74:8 *1961:D 40.0973 
*END

*D_NET *75 0.00235015
*CONN
*I *1962:D I *D sky130_fd_sc_hd__dfxtp_1
*I *1795:X O *D sky130_fd_sc_hd__mux2_1
*CAP
1 *1962:D 7.53676e-05
2 *1795:X 0.000239748
3 *75:18 0.000336687
4 *75:10 0.000501067
5 *1962:D *1639:S0 0.000209922
6 *1962:D *1962:CLK 5.50106e-05
7 *1962:D *263:26 4.48555e-05
8 *75:10 *163:36 1.21972e-05
9 *75:10 *180:10 0.000138143
10 *75:10 *265:34 2.26075e-05
11 *75:10 *422:26 0.000263686
12 *75:18 *176:12 0
13 *75:18 *179:10 5.56203e-05
14 *75:18 *183:10 0.000216721
15 *75:18 *267:26 0.000178517
16 *75:18 *408:322 0
*RES
1 *1795:X *75:10 42.6607 
2 *75:10 *75:18 35.0129 
3 *75:18 *1962:D 40.3666 
*END

*D_NET *76 0.00131755
*CONN
*I *1963:D I *D sky130_fd_sc_hd__dfxtp_1
*I *1796:X O *D sky130_fd_sc_hd__mux2_1
*CAP
1 *1963:D 0.000100897
2 *1796:X 9.81802e-05
3 *76:8 0.000199077
4 *1963:D *270:105 0.000537477
5 *1963:D *408:547 0.00021541
6 *76:8 *1796:A0 0.000166513
*RES
1 *1796:X *76:8 40.2579 
2 *76:8 *1963:D 43.9087 
*END

*D_NET *77 0.00098314
*CONN
*I *1964:D I *D sky130_fd_sc_hd__dfxtp_1
*I *1797:X O *D sky130_fd_sc_hd__mux2_1
*CAP
1 *1964:D 0.0001219
2 *1797:X 0.000224268
3 *77:8 0.000346168
4 *77:8 *1956:CLK 0
5 *77:8 *1964:CLK 0
6 *77:8 *453:143 4.31263e-05
7 *69:8 *77:8 0.000247678
*RES
1 *1797:X *77:8 43.075 
2 *77:8 *1964:D 40.0973 
*END

*D_NET *78 0.000882032
*CONN
*I *1965:D I *D sky130_fd_sc_hd__dfxtp_1
*I *1798:X O *D sky130_fd_sc_hd__mux2_1
*CAP
1 *1965:D 0.000105981
2 *1798:X 0.00015526
3 *78:10 0.00026124
4 *1965:D *267:85 0.000104029
5 *1965:D *421:14 0.000146207
6 *78:10 *290:12 0
7 *78:10 *409:255 5.67058e-05
8 *78:10 *421:10 5.26101e-05
*RES
1 *1798:X *78:10 40.8793 
2 *78:10 *1965:D 41.0502 
*END

*D_NET *79 0.000555201
*CONN
*I *1966:D I *D sky130_fd_sc_hd__dfxtp_1
*I *1799:X O *D sky130_fd_sc_hd__mux2_1
*CAP
1 *1966:D 8.45249e-06
2 *1799:X 0.000176437
3 *79:10 0.00018489
4 *1966:D *1966:CLK 1.64354e-05
5 *79:10 *1799:A1 9.84851e-05
6 *79:10 *1966:CLK 2.96369e-05
7 *79:10 *291:12 4.08641e-05
*RES
1 *1799:X *79:10 41.0036 
2 *79:10 *1966:D 38.1916 
*END

*D_NET *80 0.000586779
*CONN
*I *1967:D I *D sky130_fd_sc_hd__dfxtp_1
*I *1800:X O *D sky130_fd_sc_hd__mux2_1
*CAP
1 *1967:D 0.000167289
2 *1800:X 6.90544e-05
3 *80:8 0.000236343
4 *80:8 *292:12 0
5 *80:8 *300:8 0
6 *72:8 *80:8 0.000114092
*RES
1 *1800:X *80:8 39.5536 
2 *80:8 *1967:D 40.5737 
*END

*D_NET *81 0.000445181
*CONN
*I *1968:D I *D sky130_fd_sc_hd__dfxtp_1
*I *1801:X O *D sky130_fd_sc_hd__mux2_1
*CAP
1 *1968:D 7.17495e-06
2 *1801:X 0.000137674
3 *81:10 0.000144849
4 *1968:D *420:131 1.64354e-05
5 *1968:D *457:6 1.64354e-05
6 *81:10 *267:89 1.39317e-05
7 *81:10 *420:131 0.000108681
*RES
1 *1801:X *81:10 40.175 
2 *81:10 *1968:D 38.1916 
*END

*D_NET *82 0.000480389
*CONN
*I *1969:D I *D sky130_fd_sc_hd__dfxtp_1
*I *1802:X O *D sky130_fd_sc_hd__mux2_1
*CAP
1 *1969:D 0.000117549
2 *1802:X 0.000122646
3 *82:8 0.000240194
4 *82:8 *1802:A1 0
5 *82:8 *267:95 0
6 *82:8 *420:43 0
*RES
1 *1802:X *82:8 40.2579 
2 *82:8 *1969:D 40.0973 
*END

*D_NET *83 0.000809638
*CONN
*I *1970:D I *D sky130_fd_sc_hd__dfxtp_1
*I *1805:X O *D sky130_fd_sc_hd__mux2_1
*CAP
1 *1970:D 0
2 *1805:X 0.00031289
3 *83:8 0.00031289
4 *83:8 *1805:S 8.90115e-05
5 *83:8 *269:26 7.18161e-05
6 *83:8 *383:8 2.30292e-05
*RES
1 *1805:X *83:8 29.8823 
2 *83:8 *1970:D 23 
*END

*D_NET *84 0.000429905
*CONN
*I *1971:D I *D sky130_fd_sc_hd__dfxtp_1
*I *1806:X O *D sky130_fd_sc_hd__mux2_1
*CAP
1 *1971:D 1.13183e-05
2 *1806:X 0.000167846
3 *84:10 0.000179165
4 *1971:D *431:12 1.64354e-05
5 *84:10 *1834:A1 0
6 *84:10 *259:12 0
7 *84:10 *269:71 5.05082e-05
8 *84:10 *384:10 0
9 *84:10 *431:23 4.6318e-06
*RES
1 *1806:X *84:10 40.8793 
2 *84:10 *1971:D 38.1916 
*END

*D_NET *85 0.000940416
*CONN
*I *1972:D I *D sky130_fd_sc_hd__dfxtp_1
*I *1807:X O *D sky130_fd_sc_hd__mux2_1
*CAP
1 *1972:D 0.000289549
2 *1807:X 0.000180659
3 *85:10 0.000470208
4 *85:10 *117:8 0
*RES
1 *1807:X *85:10 40.8793 
2 *85:10 *1972:D 42.9559 
*END

*D_NET *86 0.00281906
*CONN
*I *1973:D I *D sky130_fd_sc_hd__dfxtp_1
*I *1808:X O *D sky130_fd_sc_hd__mux2_1
*CAP
1 *1973:D 0.000291168
2 *1808:X 0.000324169
3 *86:8 0.000615336
4 *1973:D *276:53 0.000389308
5 *1973:D *386:12 9.91798e-05
6 *86:8 *1845:A0 0.000245743
7 *86:8 *176:12 0.000802042
8 *86:8 *378:8 5.21127e-05
9 *86:8 *455:102 0
*RES
1 *1808:X *86:8 48.7093 
2 *86:8 *1973:D 45.8145 
*END

*D_NET *87 0.000538642
*CONN
*I *1974:D I *D sky130_fd_sc_hd__dfxtp_1
*I *1809:X O *D sky130_fd_sc_hd__mux2_1
*CAP
1 *1974:D 5.46002e-05
2 *1809:X 9.81952e-05
3 *87:8 0.000152795
4 *1974:D *409:192 0.000147908
5 *87:8 *277:42 0
6 *87:8 *416:43 8.51432e-05
*RES
1 *1809:X *87:8 40.2579 
2 *87:8 *1974:D 39.6209 
*END

*D_NET *88 0.000950502
*CONN
*I *1975:D I *D sky130_fd_sc_hd__dfxtp_1
*I *1810:X O *D sky130_fd_sc_hd__mux2_1
*CAP
1 *1975:D 1.31802e-05
2 *1810:X 0.000213642
3 *88:10 0.000226822
4 *88:10 *407:501 0
5 *88:10 *426:83 8.08511e-05
6 *88:10 *426:98 3.5664e-05
7 *88:10 *456:41 0.000380342
*RES
1 *1810:X *88:10 43.6964 
2 *88:10 *1975:D 38.1916 
*END

*D_NET *89 0.000603644
*CONN
*I *1976:D I *D sky130_fd_sc_hd__dfxtp_1
*I *1811:X O *D sky130_fd_sc_hd__mux2_1
*CAP
1 *1976:D 8.21976e-05
2 *1811:X 8.37034e-05
3 *89:8 0.000165901
4 *1976:D *427:47 0.000187079
5 *89:8 *274:74 4.23817e-05
6 *89:8 *381:8 4.23817e-05
*RES
1 *1811:X *89:8 39.9057 
2 *89:8 *1976:D 40.0973 
*END

*D_NET *90 0.000624811
*CONN
*I *1977:D I *D sky130_fd_sc_hd__dfxtp_1
*I *1812:X O *D sky130_fd_sc_hd__mux2_1
*CAP
1 *1977:D 0.00018261
2 *1812:X 0.000101725
3 *90:8 0.000284335
4 *90:8 *274:61 0
5 *90:8 *382:12 5.61414e-05
*RES
1 *1812:X *90:8 40.2579 
2 *90:8 *1977:D 41.0502 
*END

*D_NET *91 0.000770173
*CONN
*I *1978:D I *D sky130_fd_sc_hd__dfxtp_1
*I *1814:X O *D sky130_fd_sc_hd__mux2_1
*CAP
1 *1978:D 1.01088e-05
2 *1814:X 0.000213132
3 *91:10 0.00022324
4 *1978:D *2091:A 1.64354e-05
5 *91:10 *1814:A0 0.000188916
6 *91:10 *263:95 0
7 *91:10 *270:30 7.59794e-05
8 *91:10 *422:18 4.2361e-05
*RES
1 *1814:X *91:10 42.1843 
2 *91:10 *1978:D 38.1916 
*END

*D_NET *92 0.00151708
*CONN
*I *1979:D I *D sky130_fd_sc_hd__dfxtp_1
*I *1815:X O *D sky130_fd_sc_hd__mux2_1
*CAP
1 *1979:D 0.000486614
2 *1815:X 0.000113801
3 *92:10 0.000600414
4 *1979:D *1727:A2 5.37348e-06
5 *1979:D *392:10 9.67842e-05
6 *92:10 *1913:CLK 0.000108681
7 *92:10 *270:149 5.3304e-05
8 *92:10 *407:225 5.21127e-05
*RES
1 *1815:X *92:10 40.175 
2 *92:10 *1979:D 45.8559 
*END

*D_NET *93 0.00165171
*CONN
*I *1980:D I *D sky130_fd_sc_hd__dfxtp_1
*I *1816:X O *D sky130_fd_sc_hd__mux2_1
*CAP
1 *1980:D 0.000498511
2 *1816:X 7.42005e-05
3 *93:8 0.000572711
4 *1980:D *1932:CLK 1.03836e-05
5 *1980:D *433:80 5.50106e-05
6 *1980:D *433:93 1.42931e-05
7 *93:8 *231:65 7.66188e-05
8 *93:8 *457:31 0.000225275
9 *1932:D *1980:D 0.000124702
*RES
1 *1816:X *93:8 40.9621 
2 *93:8 *1980:D 44.8202 
*END

*D_NET *94 0.000537654
*CONN
*I *1981:D I *D sky130_fd_sc_hd__dfxtp_1
*I *1817:X O *D sky130_fd_sc_hd__mux2_1
*CAP
1 *1981:D 0.000167223
2 *1817:X 0.000167223
3 *1981:D *1817:A1 9.5915e-05
4 *1981:D *1963:CLK 0.000107292
*RES
1 *1817:X *1981:D 49.0088 
*END

*D_NET *95 0.0012632
*CONN
*I *1982:D I *D sky130_fd_sc_hd__dfxtp_1
*I *1818:X O *D sky130_fd_sc_hd__mux2_1
*CAP
1 *1982:D 4.30497e-05
2 *1818:X 0.000410375
3 *95:10 0.000453424
4 *95:10 *1754:S 7.63261e-05
5 *95:10 *1818:A0 1.21972e-05
6 *95:10 *262:115 0.000109641
7 *95:10 *299:27 6.48142e-05
8 *95:10 *407:128 8.4047e-05
9 *95:10 *455:160 3.7122e-06
10 *95:10 *455:169 5.61255e-06
*RES
1 *1818:X *95:10 44.8979 
2 *95:10 *1982:D 38.668 
*END

*D_NET *96 0.0018341
*CONN
*I *1983:D I *D sky130_fd_sc_hd__dfxtp_1
*I *1819:X O *D sky130_fd_sc_hd__mux2_1
*CAP
1 *1983:D 0.000117957
2 *1819:X 0.00026162
3 *96:10 0.000379578
4 *96:10 *1637:A1 0.000194309
5 *96:10 *1819:A0 0.000140927
6 *96:10 *408:443 0.000141869
7 *96:10 *456:120 0.000408129
8 *16:27 *1983:D 0.000189714
*RES
1 *1819:X *96:10 45.0014 
2 *96:10 *1983:D 40.0973 
*END

*D_NET *97 0.00148871
*CONN
*I *1984:D I *D sky130_fd_sc_hd__dfxtp_1
*I *1820:X O *D sky130_fd_sc_hd__mux2_1
*CAP
1 *1984:D 0.000104259
2 *1820:X 0.00019306
3 *97:8 0.000297319
4 *1984:D *267:85 0.000155109
5 *1984:D *421:18 0.000401843
6 *97:8 *1647:A1 0.000114092
7 *97:8 *1647:S1 0
8 *97:8 *1820:A0 0
9 *97:8 *186:10 0.000136486
10 *97:8 *266:49 8.65436e-05
*RES
1 *1820:X *97:8 42.7229 
2 *97:8 *1984:D 42.4795 
*END

*D_NET *98 0.000712952
*CONN
*I *1985:D I *D sky130_fd_sc_hd__dfxtp_1
*I *1821:X O *D sky130_fd_sc_hd__mux2_1
*CAP
1 *1985:D 4.43321e-05
2 *1821:X 0.000169433
3 *98:10 0.000213765
4 *1985:D *420:121 8.50888e-05
5 *98:10 *270:66 6.7177e-06
6 *98:10 *407:128 0
7 *98:10 *408:501 2.93335e-05
8 *98:10 *420:131 0.000164282
*RES
1 *1821:X *98:10 41.2314 
2 *98:10 *1985:D 38.9373 
*END

*D_NET *99 0.00124629
*CONN
*I *1986:D I *D sky130_fd_sc_hd__dfxtp_1
*I *1824:X O *D sky130_fd_sc_hd__mux2_1
*CAP
1 *1986:D 0.00032117
2 *1824:X 0.00030012
3 *99:8 0.000621291
4 *1986:D *279:10 3.7122e-06
5 *99:8 *279:10 0
*RES
1 *1824:X *99:8 43.075 
2 *99:8 *1986:D 43.9087 
*END

*D_NET *100 0.00208702
*CONN
*I *1987:D I *D sky130_fd_sc_hd__dfxtp_1
*I *1825:X O *D sky130_fd_sc_hd__mux2_1
*CAP
1 *1987:D 0.000310782
2 *1825:X 0.000658682
3 *100:8 0.000969464
4 *1987:D *1987:CLK 1.64354e-05
5 *1987:D *432:10 0
6 *1987:D *459:16 0
7 *100:8 *1825:A0 1.21972e-05
8 *100:8 *1994:CLK 5.83407e-05
9 *100:8 *272:23 5.12254e-05
10 *100:8 *432:8 9.8971e-06
*RES
1 *1825:X *100:8 46.7207 
2 *100:8 *1987:D 42.9145 
*END

*D_NET *101 0.000497277
*CONN
*I *1988:D I *D sky130_fd_sc_hd__dfxtp_1
*I *1826:X O *D sky130_fd_sc_hd__mux2_1
*CAP
1 *1988:D 0.0001219
2 *1826:X 0.000126738
3 *101:8 0.000248638
4 *101:8 *1826:A0 0
5 *101:8 *419:76 0
*RES
1 *1826:X *101:8 40.2579 
2 *101:8 *1988:D 40.0973 
*END

*D_NET *102 0.000675924
*CONN
*I *1989:D I *D sky130_fd_sc_hd__dfxtp_1
*I *1827:X O *D sky130_fd_sc_hd__mux2_1
*CAP
1 *1989:D 1.00796e-05
2 *1827:X 0.000165586
3 *102:10 0.000175665
4 *1989:D *278:22 1.74843e-05
5 *102:10 *1827:A0 0.000137651
6 *102:10 *1872:A1 5.31444e-05
7 *102:10 *142:10 0.000116314
*RES
1 *1827:X *102:10 41.1279 
2 *102:10 *1989:D 38.1916 
*END

*D_NET *103 0.00164463
*CONN
*I *1990:D I *D sky130_fd_sc_hd__dfxtp_1
*I *1828:X O *D sky130_fd_sc_hd__mux2_1
*CAP
1 *1990:D 5.27566e-05
2 *1828:X 0.000231781
3 *103:8 0.000284537
4 *1990:D *2024:CLK 0.000407054
5 *1990:D *275:57 0.000408755
6 *103:8 *1633:A1 9.00646e-05
7 *103:8 *1828:A0 0
8 *103:8 *347:27 0
9 *103:8 *407:501 0.000169683
*RES
1 *1828:X *103:8 43.4271 
2 *103:8 *1990:D 42.4795 
*END

*D_NET *104 0.00080643
*CONN
*I *1991:D I *D sky130_fd_sc_hd__dfxtp_1
*I *1829:X O *D sky130_fd_sc_hd__mux2_1
*CAP
1 *1991:D 0.000137033
2 *1829:X 5.34392e-05
3 *104:8 0.000190472
4 *1991:D *278:110 0.000275729
5 *104:8 *144:10 0.000114092
6 *104:8 *456:210 3.5664e-05
*RES
1 *1829:X *104:8 39.5536 
2 *104:8 *1991:D 41.0502 
*END

*D_NET *105 0.000659656
*CONN
*I *1992:D I *D sky130_fd_sc_hd__dfxtp_1
*I *1830:X O *D sky130_fd_sc_hd__mux2_1
*CAP
1 *1992:D 2.5514e-05
2 *1830:X 0.000118567
3 *105:10 0.000144081
4 *1992:D *275:119 8.90284e-05
5 *1992:D *277:30 3.32868e-05
6 *105:10 *253:10 5.26101e-05
7 *105:10 *269:101 3.22879e-05
8 *105:10 *428:66 0.000164282
*RES
1 *1830:X *105:10 40.8793 
2 *105:10 *1992:D 38.9943 
*END

*D_NET *106 0.000458548
*CONN
*I *1993:D I *D sky130_fd_sc_hd__dfxtp_1
*I *1831:X O *D sky130_fd_sc_hd__mux2_1
*CAP
1 *1993:D 5.46485e-05
2 *1831:X 7.89691e-05
3 *106:8 0.000133618
4 *1993:D *276:53 8.04002e-05
5 *106:8 *272:99 0.000110913
6 *106:8 *409:180 0
*RES
1 *1831:X *106:8 39.5536 
2 *106:8 *1993:D 38.9373 
*END

*D_NET *107 0.000573695
*CONN
*I *2003:D I *D sky130_fd_sc_hd__dfxtp_1
*I *1833:X O *D sky130_fd_sc_hd__mux2_1
*CAP
1 *2003:D 8.77079e-06
2 *1833:X 0.000164813
3 *107:10 0.000173584
4 *2003:D *409:117 1.74843e-05
5 *107:10 *269:12 0.000171906
6 *107:10 *274:20 3.71369e-05
7 *107:10 *407:437 0
*RES
1 *1833:X *107:10 41.3557 
2 *107:10 *2003:D 38.1916 
*END

*D_NET *108 0.00158556
*CONN
*I *2004:D I *D sky130_fd_sc_hd__dfxtp_1
*I *1834:X O *D sky130_fd_sc_hd__mux2_1
*CAP
1 *2004:D 0.000398703
2 *1834:X 0.000190658
3 *108:8 0.000589361
4 *2004:D *368:10 5.67058e-05
5 *108:8 *1729:A0 0.000166522
6 *108:8 *1834:A1 3.884e-05
7 *108:8 *368:10 9.21347e-06
8 *108:8 *376:29 0
9 *108:8 *407:265 0.000135557
10 *108:8 *407:423 0
*RES
1 *1834:X *108:8 42.3707 
2 *108:8 *2004:D 44.8616 
*END

*D_NET *109 0.00180276
*CONN
*I *2005:D I *D sky130_fd_sc_hd__dfxtp_1
*I *1835:X O *D sky130_fd_sc_hd__mux2_1
*CAP
1 *2005:D 5.79571e-05
2 *1835:X 0.000377674
3 *109:10 0.000435631
4 *109:10 *1862:A0 0.000237543
5 *109:10 *273:67 0.000107538
6 *109:10 *361:10 8.4047e-05
7 *109:10 *377:10 0.000186687
8 *109:10 *377:25 8.51432e-05
9 *109:10 *419:14 0.000230541
*RES
1 *1835:X *109:10 47.715 
2 *109:10 *2005:D 38.668 
*END

*D_NET *110 0.00177841
*CONN
*I *2006:D I *D sky130_fd_sc_hd__dfxtp_1
*I *1836:X O *D sky130_fd_sc_hd__mux2_1
*CAP
1 *2006:D 0.000445745
2 *1836:X 0.000152379
3 *110:8 0.000598124
4 *2006:D *1863:A0 9.84851e-05
5 *2006:D *370:10 5.50106e-05
6 *110:8 *1745:A0 1.12487e-05
7 *110:8 *1836:A1 0.000135557
8 *110:8 *370:10 0.000167443
9 *110:8 *407:399 2.96051e-05
10 *110:8 *454:53 8.48131e-05
*RES
1 *1836:X *110:8 42.3707 
2 *110:8 *2006:D 44.8616 
*END

*D_NET *111 0.0016924
*CONN
*I *2007:D I *D sky130_fd_sc_hd__dfxtp_1
*I *1837:X O *D sky130_fd_sc_hd__mux2_1
*CAP
1 *2007:D 9.8283e-05
2 *1837:X 0.000398969
3 *111:8 0.000497252
4 *111:8 *1634:S0 0
5 *111:8 *1837:A1 0.00038218
6 *111:8 *272:109 0
7 *111:8 *274:49 6.53491e-05
8 *111:8 *371:10 0.000141879
9 *111:8 *409:180 0
10 *111:8 *409:192 0.000108487
*RES
1 *1837:X *111:8 46.5964 
2 *111:8 *2007:D 39.6209 
*END

*D_NET *112 0.000448767
*CONN
*I *2008:D I *D sky130_fd_sc_hd__dfxtp_1
*I *1838:X O *D sky130_fd_sc_hd__mux2_1
*CAP
1 *2008:D 9.8283e-05
2 *1838:X 6.90544e-05
3 *112:8 0.000167337
4 *112:8 *408:216 0.000114092
*RES
1 *1838:X *112:8 39.5536 
2 *112:8 *2008:D 39.6209 
*END

*D_NET *113 0.00171954
*CONN
*I *2009:D I *D sky130_fd_sc_hd__dfxtp_1
*I *1839:X O *D sky130_fd_sc_hd__mux2_1
*CAP
1 *2009:D 3.8875e-05
2 *1839:X 0.000519372
3 *113:10 0.000558247
4 *2009:D *269:101 1.33947e-05
5 *113:10 *373:35 0.000102222
6 *113:10 *407:355 0.000487434
*RES
1 *1839:X *113:10 48.295 
2 *113:10 *2009:D 38.668 
*END

*D_NET *114 0.00078438
*CONN
*I *2010:D I *D sky130_fd_sc_hd__dfxtp_1
*I *1840:X O *D sky130_fd_sc_hd__mux2_1
*CAP
1 *2010:D 9.26771e-06
2 *1840:X 0.000272665
3 *114:10 0.000281933
4 *2010:D *374:33 4.9054e-06
5 *2010:D *427:79 1.64354e-05
6 *114:10 *1840:A0 4.84129e-06
7 *114:10 *374:20 9.1253e-05
8 *114:10 *374:33 8.29264e-05
9 *114:10 *407:325 2.01531e-05
*RES
1 *1840:X *114:10 42.3086 
2 *114:10 *2010:D 38.1916 
*END

*D_NET *115 0.000821773
*CONN
*I *2011:D I *D sky130_fd_sc_hd__dfxtp_1
*I *1842:X O *D sky130_fd_sc_hd__mux2_1
*CAP
1 *2011:D 0
2 *1842:X 0.000399372
3 *115:8 0.000399372
4 *115:8 *375:8 2.30292e-05
*RES
1 *1842:X *115:8 29.8823 
2 *115:8 *2011:D 23 
*END

*D_NET *116 0.001265
*CONN
*I *2012:D I *D sky130_fd_sc_hd__dfxtp_1
*I *1843:X O *D sky130_fd_sc_hd__mux2_1
*CAP
1 *2012:D 0
2 *1843:X 0.000379332
3 *116:16 0.000379332
4 *116:16 *276:35 2.07355e-05
5 *116:16 *276:53 0
6 *116:16 *376:10 4.65917e-05
7 *116:16 *429:99 0.000373944
8 *116:16 *429:101 4.22383e-05
9 *116:16 *429:121 2.28308e-05
*RES
1 *1843:X *116:16 31.643 
2 *116:16 *2012:D 23 
*END

*D_NET *117 0.00136774
*CONN
*I *2013:D I *D sky130_fd_sc_hd__dfxtp_1
*I *1844:X O *D sky130_fd_sc_hd__mux2_1
*CAP
1 *2013:D 5.4084e-05
2 *1844:X 0.000556684
3 *117:8 0.000610768
4 *2013:D *419:18 0.000146207
5 *117:8 *1807:A1 0
6 *117:8 *269:127 0
7 *117:8 *269:137 0
8 *117:8 *419:26 0
9 *85:10 *117:8 0
*RES
1 *1844:X *117:8 48.3571 
2 *117:8 *2013:D 39.6209 
*END

*D_NET *118 0.00141233
*CONN
*I *2014:D I *D sky130_fd_sc_hd__dfxtp_1
*I *1845:X O *D sky130_fd_sc_hd__mux2_1
*CAP
1 *2014:D 9.62535e-05
2 *1845:X 0.000609914
3 *118:8 0.000706167
4 *118:8 *409:176 0
5 *118:8 *409:180 0
6 *118:8 *455:102 0
*RES
1 *1845:X *118:8 48.7093 
2 *118:8 *2014:D 39.6209 
*END

*D_NET *119 0.000736328
*CONN
*I *2015:D I *D sky130_fd_sc_hd__dfxtp_1
*I *1846:X O *D sky130_fd_sc_hd__mux2_1
*CAP
1 *2015:D 1.2998e-05
2 *1846:X 0.000272037
3 *119:10 0.000285035
4 *119:10 *251:14 0
5 *119:10 *274:55 5.50049e-05
6 *119:10 *277:42 0.000111253
7 *119:10 *278:47 0
8 *119:10 *419:113 0
*RES
1 *1846:X *119:10 43.3443 
2 *119:10 *2015:D 38.1916 
*END

*D_NET *120 0.000961948
*CONN
*I *2016:D I *D sky130_fd_sc_hd__dfxtp_1
*I *1847:X O *D sky130_fd_sc_hd__mux2_1
*CAP
1 *2016:D 4.6732e-05
2 *1847:X 0.00023587
3 *120:8 0.000282602
4 *2016:D *2016:CLK 0.000189681
5 *2016:D *407:463 3.7122e-06
6 *2016:D *407:467 7.41637e-05
7 *120:8 *1634:S1 0
8 *120:8 *175:8 4.08641e-05
9 *120:8 *363:8 0
10 *120:8 *426:83 9.48381e-06
11 *120:8 *426:98 7.88399e-05
*RES
1 *1847:X *120:8 42.7229 
2 *120:8 *2016:D 40.0973 
*END

*D_NET *121 0.000748593
*CONN
*I *2017:D I *D sky130_fd_sc_hd__dfxtp_1
*I *1848:X O *D sky130_fd_sc_hd__mux2_1
*CAP
1 *2017:D 1.31802e-05
2 *1848:X 0.000242761
3 *121:8 0.000255942
4 *121:8 *274:74 0
5 *121:8 *427:53 0.000225265
6 *121:8 *427:66 1.14452e-05
*RES
1 *1848:X *121:8 43.075 
2 *121:8 *2017:D 38.1916 
*END

*D_NET *122 0.000600981
*CONN
*I *2018:D I *D sky130_fd_sc_hd__dfxtp_1
*I *1849:X O *D sky130_fd_sc_hd__mux2_1
*CAP
1 *2018:D 8.45249e-06
2 *1849:X 0.00022432
3 *122:8 0.000232773
4 *2018:D *427:79 1.64354e-05
5 *122:8 *274:61 0
6 *122:8 *427:66 5.61414e-05
7 *122:8 *427:70 6.28591e-05
*RES
1 *1849:X *122:8 42.7229 
2 *122:8 *2018:D 38.1916 
*END

*D_NET *123 0.00092673
*CONN
*I *2019:D I *D sky130_fd_sc_hd__dfxtp_1
*I *1851:X O *D sky130_fd_sc_hd__mux2_1
*CAP
1 *2019:D 4.62744e-06
2 *1851:X 0.000247247
3 *123:10 0.000251875
4 *2019:D *1824:A1 1.74843e-05
5 *2019:D *430:14 1.64354e-05
6 *123:10 *1851:A1 2.62931e-05
7 *123:10 *139:10 0.000214312
8 *123:10 *237:8 9.58714e-05
9 *123:10 *275:34 5.25848e-05
10 *123:10 *430:14 0
*RES
1 *1851:X *123:10 43.0129 
2 *123:10 *2019:D 38.1916 
*END

*D_NET *124 0.00215881
*CONN
*I *2020:D I *D sky130_fd_sc_hd__dfxtp_1
*I *1852:X O *D sky130_fd_sc_hd__mux2_1
*CAP
1 *2020:D 0.000153719
2 *1852:X 0.000257225
3 *124:8 0.000410944
4 *2020:D *408:134 0.000271425
5 *124:8 *277:92 0.000635259
6 *124:8 *409:98 0.000189806
7 *124:8 *430:67 0.000240426
*RES
1 *1852:X *124:8 46.5964 
2 *124:8 *2020:D 41.0502 
*END

*D_NET *125 0.00109616
*CONN
*I *2021:D I *D sky130_fd_sc_hd__dfxtp_1
*I *1853:X O *D sky130_fd_sc_hd__mux2_1
*CAP
1 *2021:D 0.000182134
2 *1853:X 9.04985e-05
3 *125:8 0.000272632
4 *2021:D *419:63 0.000365767
5 *125:8 *157:8 9.63918e-05
6 *125:8 *453:25 8.87374e-05
*RES
1 *1853:X *125:8 40.61 
2 *125:8 *2021:D 42.003 
*END

*D_NET *126 0.000604835
*CONN
*I *2022:D I *D sky130_fd_sc_hd__dfxtp_1
*I *1854:X O *D sky130_fd_sc_hd__mux2_1
*CAP
1 *2022:D 7.47954e-05
2 *1854:X 8.82946e-05
3 *126:8 0.00016309
4 *2022:D *408:247 0.000108972
5 *126:8 *409:176 0
6 *126:8 *455:102 0.000169683
*RES
1 *1854:X *126:8 40.2579 
2 *126:8 *2022:D 40.0973 
*END

*D_NET *127 0.00102821
*CONN
*I *2023:D I *D sky130_fd_sc_hd__dfxtp_1
*I *1855:X O *D sky130_fd_sc_hd__mux2_1
*CAP
1 *2023:D 6.04184e-05
2 *1855:X 0.000184355
3 *127:8 0.000244774
4 *2023:D *2023:CLK 0.000143599
5 *127:8 *159:8 4.66036e-05
6 *127:8 *272:109 0.000348456
7 *127:8 *455:20 0
*RES
1 *1855:X *127:8 42.7229 
2 *127:8 *2023:D 39.6209 
*END

*D_NET *128 0.00168253
*CONN
*I *2024:D I *D sky130_fd_sc_hd__dfxtp_1
*I *1856:X O *D sky130_fd_sc_hd__mux2_1
*CAP
1 *2024:D 0.000253092
2 *1856:X 0.000238871
3 *128:10 0.000491962
4 *2024:D *275:57 0.0002907
5 *2024:D *356:6 3.7122e-06
6 *128:10 *1873:S 3.22879e-05
7 *128:10 *1891:S 0.000164291
8 *128:10 *278:118 0.00019747
9 *128:10 *356:14 0
10 *128:10 *429:46 1.01436e-05
*RES
1 *1856:X *128:10 43.3443 
2 *128:10 *2024:D 43.9087 
*END

*D_NET *129 0.000738712
*CONN
*I *2025:D I *D sky130_fd_sc_hd__dfxtp_1
*I *1857:X O *D sky130_fd_sc_hd__mux2_1
*CAP
1 *2025:D 1.11297e-05
2 *1857:X 0.000266726
3 *129:10 0.000277856
4 *2025:D *269:101 4.9054e-06
5 *129:10 *161:8 3.62219e-05
6 *129:10 *189:6 5.26733e-06
7 *129:10 *453:90 0.000126463
8 *129:10 *457:39 1.01436e-05
9 *129:10 *457:50 0
10 *129:10 *457:52 0
*RES
1 *1857:X *129:10 43.6964 
2 *129:10 *2025:D 38.1916 
*END

*D_NET *130 0.000808579
*CONN
*I *2026:D I *D sky130_fd_sc_hd__dfxtp_1
*I *1858:X O *D sky130_fd_sc_hd__mux2_1
*CAP
1 *2026:D 0.000141151
2 *1858:X 6.90834e-05
3 *130:8 0.000210234
4 *2026:D *407:311 0.000274028
5 *130:8 *276:61 0.000114083
6 *130:8 *278:47 0
*RES
1 *1858:X *130:8 39.5536 
2 *130:8 *2026:D 41.0502 
*END

*D_NET *131 0.00250252
*CONN
*I *2036:D I *D sky130_fd_sc_hd__dfxtp_1
*I *1860:X O *D sky130_fd_sc_hd__mux2_1
*CAP
1 *2036:D 0.000222798
2 *1860:X 0.000316518
3 *131:10 0.000539315
4 *2036:D *2036:CLK 0.000185129
5 *2036:D *359:10 2.93845e-05
6 *131:10 *1860:A0 0.000342394
7 *131:10 *275:30 0.000564498
8 *131:10 *359:10 0.000167443
9 *131:10 *409:117 0.000135037
10 *131:10 *430:8 0
11 *131:10 *430:14 0
*RES
1 *1860:X *131:10 47.1143 
2 *131:10 *2036:D 42.4795 
*END

*D_NET *132 0.000601816
*CONN
*I *2037:D I *D sky130_fd_sc_hd__dfxtp_1
*I *1861:X O *D sky130_fd_sc_hd__mux2_1
*CAP
1 *2037:D 5.52147e-05
2 *1861:X 6.52399e-05
3 *132:8 0.000120455
4 *2037:D *276:22 2.54551e-05
5 *2037:D *407:423 4.23386e-05
6 *132:8 *274:10 0.000166513
7 *132:8 *276:16 9.03784e-05
8 *132:8 *430:75 3.62219e-05
*RES
1 *1861:X *132:8 40.2579 
2 *132:8 *2037:D 38.9943 
*END

*D_NET *133 0.00135912
*CONN
*I *2038:D I *D sky130_fd_sc_hd__dfxtp_1
*I *1862:X O *D sky130_fd_sc_hd__mux2_1
*CAP
1 *2038:D 1.31802e-05
2 *1862:X 0.000273255
3 *133:10 0.000286436
4 *133:10 *252:8 8.85189e-05
5 *133:10 *273:67 0
6 *133:10 *274:55 5.50106e-05
7 *133:10 *278:47 0.00025791
8 *133:10 *408:269 0.000384805
*RES
1 *1862:X *133:10 46.5136 
2 *133:10 *2038:D 38.1916 
*END

*D_NET *134 0.000526901
*CONN
*I *2039:D I *D sky130_fd_sc_hd__dfxtp_1
*I *1863:X O *D sky130_fd_sc_hd__mux2_1
*CAP
1 *2039:D 5.28638e-05
2 *1863:X 5.88038e-05
3 *134:8 0.000111668
4 *2039:D *276:53 4.72035e-05
5 *2039:D *386:12 1.53528e-06
6 *134:8 *1863:S 3.72639e-05
7 *134:8 *273:46 0.000169683
8 *134:8 *276:53 4.78793e-05
*RES
1 *1863:X *134:8 40.2579 
2 *134:8 *2039:D 38.9943 
*END

*D_NET *135 0.00232161
*CONN
*I *2040:D I *D sky130_fd_sc_hd__dfxtp_1
*I *1864:X O *D sky130_fd_sc_hd__mux2_1
*CAP
1 *2040:D 3.51255e-05
2 *1864:X 0.000331555
3 *135:8 0.00036668
4 *2040:D *2040:CLK 5.6508e-05
5 *2040:D *269:41 0.000146207
6 *135:8 *1634:S0 0.000300108
7 *135:8 *1837:A1 0
8 *135:8 *407:477 0.000296026
9 *135:8 *455:55 0.000789397
*RES
1 *1864:X *135:8 48.7093 
2 *135:8 *2040:D 39.6209 
*END

*D_NET *136 0.000565477
*CONN
*I *2041:D I *D sky130_fd_sc_hd__dfxtp_1
*I *1865:X O *D sky130_fd_sc_hd__mux2_1
*CAP
1 *2041:D 8.76079e-05
2 *1865:X 0.00011308
3 *136:8 0.000200688
4 *2041:D *2041:CLK 4.9054e-06
5 *2041:D *380:27 3.17963e-05
6 *2041:D *429:31 4.57742e-05
7 *136:8 *276:117 0
8 *136:8 *408:207 8.16253e-05
*RES
1 *1865:X *136:8 40.2579 
2 *136:8 *2041:D 39.6209 
*END

*D_NET *137 0.001078
*CONN
*I *2042:D I *D sky130_fd_sc_hd__dfxtp_1
*I *1866:X O *D sky130_fd_sc_hd__mux2_1
*CAP
1 *2042:D 1.13183e-05
2 *1866:X 0.00033999
3 *137:14 0.000351309
4 *2042:D *427:43 1.64354e-05
5 *137:14 *373:8 0
6 *137:14 *407:355 0.000358951
*RES
1 *1866:X *137:14 44.9393 
2 *137:14 *2042:D 38.1916 
*END

*D_NET *138 0.000532239
*CONN
*I *2043:D I *D sky130_fd_sc_hd__dfxtp_1
*I *1867:X O *D sky130_fd_sc_hd__mux2_1
*CAP
1 *2043:D 3.33267e-05
2 *1867:X 7.79915e-05
3 *138:8 0.000111318
4 *2043:D *366:25 0.00010013
5 *2043:D *407:311 0.00010013
6 *138:8 *436:129 0.000109343
*RES
1 *1867:X *138:8 39.5536 
2 *138:8 *2043:D 39.1445 
*END

*D_NET *139 0.00152538
*CONN
*I *2044:D I *D sky130_fd_sc_hd__dfxtp_1
*I *1869:X O *D sky130_fd_sc_hd__mux2_1
*CAP
1 *2044:D 4.66935e-05
2 *1869:X 0.000378766
3 *139:10 0.00042546
4 *2044:D *272:31 2.61544e-05
5 *139:10 *1869:A0 2.64616e-05
6 *139:10 *275:30 0.000136486
7 *139:10 *277:100 0.000104531
8 *139:10 *408:355 0
9 *139:10 *430:14 0
10 *139:10 *430:32 0.000166513
11 *123:10 *139:10 0.000214312
*RES
1 *1869:X *139:10 45.8093 
2 *139:10 *2044:D 38.9373 
*END

*D_NET *140 0.000879207
*CONN
*I *2045:D I *D sky130_fd_sc_hd__dfxtp_1
*I *1870:X O *D sky130_fd_sc_hd__mux2_1
*CAP
1 *2045:D 5.58791e-05
2 *1870:X 0.000189068
3 *140:8 0.000244948
4 *2045:D *2045:CLK 7.10068e-06
5 *2045:D *336:10 8.42176e-05
6 *140:8 *1852:A1 0.00012837
7 *140:8 *2045:CLK 9.92573e-05
8 *140:8 *272:25 0
9 *140:8 *352:10 7.03663e-05
*RES
1 *1870:X *140:8 43.075 
2 *140:8 *2045:D 39.6209 
*END

*D_NET *141 0.0015293
*CONN
*I *2046:D I *D sky130_fd_sc_hd__dfxtp_1
*I *1871:X O *D sky130_fd_sc_hd__mux2_1
*CAP
1 *2046:D 9.50599e-05
2 *1871:X 0.00030502
3 *141:8 0.00040008
4 *2046:D *2064:CLK 0.000127821
5 *2046:D *275:63 0.000313255
6 *2046:D *419:70 0.000228597
7 *141:8 *1871:A1 0
8 *141:8 *251:14 0
9 *141:8 *275:63 0
10 *141:8 *337:10 0
11 *141:8 *353:25 0
12 *141:8 *408:178 4.99867e-05
13 *141:8 *419:76 9.48381e-06
*RES
1 *1871:X *141:8 43.4271 
2 *141:8 *2046:D 42.003 
*END

*D_NET *142 0.00137987
*CONN
*I *2047:D I *D sky130_fd_sc_hd__dfxtp_1
*I *1872:X O *D sky130_fd_sc_hd__mux2_1
*CAP
1 *2047:D 1.38132e-05
2 *1872:X 0.000350403
3 *142:10 0.000364217
4 *2047:D *338:10 4.9054e-06
5 *142:10 *1872:A1 0.000105402
6 *142:10 *258:10 7.69935e-05
7 *142:10 *277:14 0.000164337
8 *142:10 *282:10 0.000139647
9 *142:10 *338:10 4.38375e-05
10 *142:10 *431:34 0
11 *102:10 *142:10 0.000116314
*RES
1 *1872:X *142:10 46.5136 
2 *142:10 *2047:D 38.1916 
*END

*D_NET *143 0.000508991
*CONN
*I *2048:D I *D sky130_fd_sc_hd__dfxtp_1
*I *1873:X O *D sky130_fd_sc_hd__mux2_1
*CAP
1 *2048:D 5.87313e-05
2 *1873:X 0.000122661
3 *143:8 0.000181392
4 *2048:D *2065:CLK 0.000146207
5 *143:8 *1873:A1 0
6 *143:8 *347:12 0
7 *143:8 *426:36 0
*RES
1 *1873:X *143:8 40.2579 
2 *143:8 *2048:D 39.6209 
*END

*D_NET *144 0.00175187
*CONN
*I *2049:D I *D sky130_fd_sc_hd__dfxtp_1
*I *1874:X O *D sky130_fd_sc_hd__mux2_1
*CAP
1 *2049:D 0.000297669
2 *1874:X 0.000269747
3 *144:10 0.000567416
4 *2049:D *275:57 0.000141648
5 *2049:D *340:8 1.39317e-05
6 *2049:D *356:27 6.46633e-05
7 *2049:D *429:59 0.000225995
8 *144:10 *1856:S 0
9 *144:10 *1873:S 5.67058e-05
10 *144:10 *429:59 0
11 *144:10 *456:210 0
12 *104:8 *144:10 0.000114092
*RES
1 *1874:X *144:10 42.9921 
2 *144:10 *2049:D 44.3852 
*END

*D_NET *145 0.000851495
*CONN
*I *2050:D I *D sky130_fd_sc_hd__dfxtp_1
*I *1875:X O *D sky130_fd_sc_hd__mux2_1
*CAP
1 *2050:D 0.000176316
2 *1875:X 3.93847e-05
3 *145:8 0.000215701
4 *2050:D *189:14 0.000189687
5 *145:8 *277:60 0.000114092
6 *145:8 *436:75 0.000116314
*RES
1 *1875:X *145:8 39.5536 
2 *145:8 *2050:D 41.5266 
*END

*D_NET *146 0.00062273
*CONN
*I *2051:D I *D sky130_fd_sc_hd__dfxtp_1
*I *1876:X O *D sky130_fd_sc_hd__mux2_1
*CAP
1 *2051:D 0.00010236
2 *1876:X 9.98551e-05
3 *146:8 0.000202215
4 *2051:D *350:29 6.17437e-06
5 *2051:D *407:293 4.56028e-05
6 *146:8 *407:295 0
7 *146:8 *407:373 0
8 *146:8 *416:43 0.000166522
*RES
1 *1876:X *146:8 40.2579 
2 *146:8 *2051:D 39.6209 
*END

*D_NET *147 0.000793553
*CONN
*I *2052:D I *D sky130_fd_sc_hd__dfxtp_1
*I *1877:X O *D sky130_fd_sc_hd__mux2_1
*CAP
1 *2052:D 0.000239713
2 *1877:X 6.41184e-05
3 *147:8 0.000303831
4 *2052:D *408:384 0.000114563
5 *147:8 *263:95 3.5664e-05
6 *147:8 *451:158 3.5664e-05
*RES
1 *1877:X *147:8 39.5536 
2 *147:8 *2052:D 42.4795 
*END

*D_NET *148 0.00153225
*CONN
*I *2053:D I *D sky130_fd_sc_hd__dfxtp_1
*I *1878:X O *D sky130_fd_sc_hd__mux2_1
*CAP
1 *2053:D 4.68934e-05
2 *1878:X 0.000337155
3 *148:8 0.000384048
4 *2053:D *1742:S1 5.2426e-05
5 *2053:D *425:16 0.000144256
6 *148:8 *263:110 0
7 *148:8 *263:120 6.00172e-05
8 *148:8 *304:20 9.88378e-05
9 *148:8 *312:14 0.000136486
10 *148:8 *416:120 0.00019747
11 *148:8 *416:169 7.46643e-05
*RES
1 *1878:X *148:8 45.8921 
2 *148:8 *2053:D 39.6209 
*END

*D_NET *149 0.000621447
*CONN
*I *2054:D I *D sky130_fd_sc_hd__dfxtp_1
*I *1879:X O *D sky130_fd_sc_hd__mux2_1
*CAP
1 *2054:D 9.2744e-06
2 *1879:X 0.000134453
3 *149:10 0.000143728
4 *149:10 *177:10 9.84851e-05
5 *149:10 *453:90 0.000171906
6 *149:10 *457:31 5.36457e-05
7 *16:27 *2054:D 9.95543e-06
*RES
1 *1879:X *149:10 41.3557 
2 *149:10 *2054:D 38.1916 
*END

*D_NET *150 0.000563176
*CONN
*I *2055:D I *D sky130_fd_sc_hd__dfxtp_1
*I *1880:X O *D sky130_fd_sc_hd__mux2_1
*CAP
1 *2055:D 2.58573e-05
2 *1880:X 8.34728e-05
3 *150:8 0.00010933
4 *2055:D *163:73 0.000146207
5 *2055:D *410:88 0.000146207
6 *150:8 *163:88 0
7 *150:8 *164:28 5.21024e-05
8 *150:8 *265:85 0
*RES
1 *1880:X *150:8 39.5536 
2 *150:8 *2055:D 39.6209 
*END

*D_NET *151 0.000790335
*CONN
*I *2056:D I *D sky130_fd_sc_hd__dfxtp_1
*I *1881:X O *D sky130_fd_sc_hd__mux2_1
*CAP
1 *2056:D 0.000154122
2 *1881:X 9.67085e-05
3 *151:8 0.00025083
4 *2056:D *408:394 0.000203531
5 *151:8 *409:166 0
6 *151:8 *455:145 8.51432e-05
*RES
1 *1881:X *151:8 40.2579 
2 *151:8 *2056:D 42.003 
*END

*D_NET *152 0.000572624
*CONN
*I *2057:D I *D sky130_fd_sc_hd__dfxtp_1
*I *1882:X O *D sky130_fd_sc_hd__mux2_1
*CAP
1 *2057:D 7.17495e-06
2 *1882:X 0.000221832
3 *152:10 0.000229007
4 *2057:D *416:14 1.64354e-05
5 *152:10 *197:14 5.21024e-05
6 *152:10 *409:174 2.96369e-05
7 *16:33 *2057:D 1.64354e-05
*RES
1 *1882:X *152:10 41.1279 
2 *152:10 *2057:D 38.1916 
*END

*D_NET *153 0.00108376
*CONN
*I *2058:D I *D sky130_fd_sc_hd__dfxtp_1
*I *1883:X O *D sky130_fd_sc_hd__mux2_1
*CAP
1 *2058:D 5.75841e-05
2 *1883:X 5.23918e-05
3 *153:8 0.000109976
4 *2058:D *2073:A 0.00032013
5 *2058:D *266:65 0.000321837
6 *153:8 *270:66 0.000110922
7 *153:8 *436:48 0.000110922
*RES
1 *1883:X *153:8 39.5536 
2 *153:8 *2058:D 41.5266 
*END

*D_NET *154 0.000780543
*CONN
*I *2059:D I *D sky130_fd_sc_hd__dfxtp_1
*I *1884:X O *D sky130_fd_sc_hd__mux2_1
*CAP
1 *2059:D 9.74119e-05
2 *1884:X 6.38199e-05
3 *154:8 0.000161232
4 *2059:D *1733:B 0.000232254
5 *154:8 *231:65 5.61414e-05
6 *154:8 *457:31 0.000169683
*RES
1 *1884:X *154:8 40.2579 
2 *154:8 *2059:D 40.5737 
*END

*D_NET *155 0.000393109
*CONN
*I *2060:D I *D sky130_fd_sc_hd__dfxtp_1
*I *1886:X O *D sky130_fd_sc_hd__mux2_1
*CAP
1 *2060:D 5.33781e-05
2 *1886:X 9.18104e-05
3 *155:8 0.000145188
4 *2060:D *2060:CLK 0.000102732
5 *155:8 *272:35 0
6 *155:8 *278:98 0
*RES
1 *1886:X *155:8 39.5536 
2 *155:8 *2060:D 39.1445 
*END

*D_NET *156 0.00104714
*CONN
*I *2061:D I *D sky130_fd_sc_hd__dfxtp_1
*I *1887:X O *D sky130_fd_sc_hd__mux2_1
*CAP
1 *2061:D 0.000108616
2 *1887:X 9.19688e-05
3 *156:10 0.000200585
4 *2061:D *407:437 0.000141648
5 *2061:D *430:67 0.000223381
6 *156:10 *239:10 0.000114083
7 *156:10 *416:184 0.000111852
8 *156:10 *452:89 5.50049e-05
*RES
1 *1887:X *156:10 40.175 
2 *156:10 *2061:D 40.5737 
*END

*D_NET *157 0.00126025
*CONN
*I *2062:D I *D sky130_fd_sc_hd__dfxtp_1
*I *1888:X O *D sky130_fd_sc_hd__mux2_1
*CAP
1 *2062:D 0.000195688
2 *1888:X 0.000327506
3 *157:8 0.000523194
4 *157:8 *1888:A0 0
5 *157:8 *345:8 0
6 *157:8 *353:10 7.66085e-05
7 *157:8 *453:29 4.08641e-05
8 *125:8 *157:8 9.63918e-05
*RES
1 *1888:X *157:8 45.1879 
2 *157:8 *2062:D 41.0502 
*END

*D_NET *158 0.000570273
*CONN
*I *2063:D I *D sky130_fd_sc_hd__dfxtp_1
*I *1889:X O *D sky130_fd_sc_hd__mux2_1
*CAP
1 *2063:D 3.51255e-05
2 *1889:X 0.000107841
3 *158:8 0.000142966
4 *2063:D *275:119 0.000146207
5 *2063:D *277:30 5.6508e-05
6 *158:8 *409:176 0
7 *158:8 *455:102 8.16253e-05
*RES
1 *1889:X *158:8 40.2579 
2 *158:8 *2063:D 39.6209 
*END

*D_NET *159 0.00184682
*CONN
*I *2064:D I *D sky130_fd_sc_hd__dfxtp_1
*I *1890:X O *D sky130_fd_sc_hd__mux2_1
*CAP
1 *2064:D 0.000240175
2 *1890:X 0.000171036
3 *159:8 0.000411211
4 *2064:D *275:63 0.000616613
5 *2064:D *347:6 2.72257e-05
6 *159:8 *272:109 0
7 *159:8 *455:20 0.000323812
8 *159:8 *456:18 1.01436e-05
9 *127:8 *159:8 4.66036e-05
*RES
1 *1890:X *159:8 42.3707 
2 *159:8 *2064:D 44.8616 
*END

*D_NET *160 0.000679612
*CONN
*I *2065:D I *D sky130_fd_sc_hd__dfxtp_1
*I *1891:X O *D sky130_fd_sc_hd__mux2_1
*CAP
1 *2065:D 7.0595e-05
2 *1891:X 0.000217456
3 *160:8 0.000288051
4 *160:8 *283:10 0
5 *160:8 *456:22 0.00010351
*RES
1 *1891:X *160:8 42.3707 
2 *160:8 *2065:D 39.1445 
*END

*D_NET *161 0.00151405
*CONN
*I *2066:D I *D sky130_fd_sc_hd__dfxtp_1
*I *1892:X O *D sky130_fd_sc_hd__mux2_1
*CAP
1 *2066:D 0.000147263
2 *1892:X 0.00029256
3 *161:8 0.000439823
4 *2066:D *1875:A0 5.3304e-05
5 *2066:D *262:81 4.87505e-05
6 *161:8 *1857:S 0
7 *161:8 *1875:A1 0
8 *161:8 *349:8 0
9 *161:8 *457:33 0.000167452
10 *161:8 *457:39 0.000303269
11 *161:8 *457:50 2.54046e-05
12 *129:10 *161:8 3.62219e-05
*RES
1 *1892:X *161:8 45.1879 
2 *161:8 *2066:D 40.5737 
*END

*D_NET *162 0.000893857
*CONN
*I *2067:D I *D sky130_fd_sc_hd__dfxtp_1
*I *1893:X O *D sky130_fd_sc_hd__mux2_1
*CAP
1 *2067:D 0.000127699
2 *1893:X 0.000107771
3 *162:8 0.000235471
4 *2067:D *416:28 0.000228597
5 *162:8 *278:47 0.000194318
6 *162:8 *350:14 0
*RES
1 *1893:X *162:8 40.61 
2 *162:8 *2067:D 40.5737 
*END

*D_NET *163 0.0228083
*CONN
*I *1725:A I *D sky130_fd_sc_hd__or2_1
*I *1719:A1 I *D sky130_fd_sc_hd__o21a_1
*I *1743:A1 I *D sky130_fd_sc_hd__o21a_1
*I *1646:A I *D sky130_fd_sc_hd__or2_1
*I *1656:A1 I *D sky130_fd_sc_hd__o21a_1
*I *1630:A I *D sky130_fd_sc_hd__or2_1
*I *1640:A1 I *D sky130_fd_sc_hd__o21a_1
*I *1735:A1 I *D sky130_fd_sc_hd__o21a_1
*I *1622:Y O *D sky130_fd_sc_hd__inv_2
*CAP
1 *1725:A 2.79004e-05
2 *1719:A1 0
3 *1743:A1 0
4 *1646:A 0
5 *1656:A1 0.000350903
6 *1630:A 0
7 *1640:A1 0
8 *1735:A1 0
9 *1622:Y 2.45237e-05
10 *163:114 0.00124951
11 *163:108 0.00257704
12 *163:88 0.000506458
13 *163:73 0.00177821
14 *163:44 0.000296916
15 *163:36 0.00070356
16 *163:32 0.00103326
17 *163:22 0.00101186
18 *163:20 0.00154126
19 *163:16 0.000431704
20 *163:8 0.00152069
21 *1656:A1 *410:88 0.000148688
22 *1656:A1 *421:82 4.60646e-05
23 *1725:A *304:12 5.50106e-05
24 *163:8 *1622:A 1.14452e-05
25 *163:8 *410:117 2.96154e-05
26 *163:16 *1622:A 1.01436e-05
27 *163:16 *164:8 0.000181131
28 *163:16 *263:110 0
29 *163:16 *263:120 4.5051e-05
30 *163:16 *410:43 2.02872e-05
31 *163:16 *425:26 0.00016478
32 *163:20 *1747:B2 2.55642e-05
33 *163:20 *164:18 0.000445794
34 *163:20 *256:8 7.81176e-05
35 *163:20 *267:71 8.59227e-05
36 *163:22 *164:18 8.4047e-05
37 *163:22 *171:8 0.000166666
38 *163:22 *263:95 0
39 *163:22 *263:110 0
40 *163:22 *267:71 0.000265996
41 *163:22 *416:136 1.37246e-05
42 *163:32 *260:10 0.000111158
43 *163:32 *263:95 0
44 *163:32 *267:56 2.76611e-06
45 *163:32 *267:71 0.00027343
46 *163:32 *270:30 0.000269781
47 *163:36 *180:10 1.94693e-05
48 *163:36 *422:26 0.000310653
49 *163:44 *1735:B1 0.00073928
50 *163:44 *1739:B2 0.000993215
51 *163:44 *164:86 8.26672e-05
52 *163:44 *176:16 0.000194309
53 *163:44 *410:72 0.000260653
54 *163:73 *314:35 0.000139352
55 *163:73 *330:29 0.000170601
56 *163:73 *410:88 0.000452245
57 *163:73 *454:129 0.000692404
58 *163:73 *454:141 0.000277339
59 *163:88 *164:28 0
60 *163:88 *194:12 0
61 *163:88 *265:85 0.000162134
62 *163:88 *407:159 0
63 *163:88 *407:167 0
64 *163:108 *241:8 2.76611e-06
65 *163:108 *304:12 0.000272377
66 *163:108 *304:20 0.000902971
67 *163:108 *410:117 4.6318e-06
68 *163:108 *425:16 0.000310641
69 *163:108 *425:26 4.95081e-05
70 *163:108 *425:40 1.56665e-05
71 *163:114 *1688:A 0
72 *163:114 *240:10 0.000169674
73 *163:114 *265:101 0
74 *163:114 *265:110 0
75 *163:114 *408:574 0
76 *163:114 *477:23 0.000435022
77 *2055:D *163:73 0.000146207
78 *29:6 *163:32 6.17437e-06
79 *44:12 *163:73 0.000356424
80 *46:8 *163:88 0
81 *60:8 *163:114 4.07715e-05
82 *75:10 *163:36 1.21972e-05
83 *150:8 *163:88 0
*RES
1 *1622:Y *163:8 38.8493 
2 *163:8 *163:16 19.4743 
3 *163:16 *163:20 21.4836 
4 *163:20 *163:22 10.7093 
5 *163:22 *163:32 44.21 
6 *163:32 *163:36 22.2914 
7 *163:36 *163:44 43.7129 
8 *163:44 *1735:A1 23 
9 *163:36 *1640:A1 23 
10 *163:22 *1630:A 38 
11 *163:20 *163:73 35.9629 
12 *163:73 *1656:A1 28.2821 
13 *163:73 *163:88 39.6529 
14 *163:88 *1646:A 23 
15 *163:16 *1743:A1 23 
16 *163:8 *163:108 49.8236 
17 *163:108 *163:114 40.2093 
18 *163:114 *1719:A1 23 
19 *163:108 *1725:A 38.6214 
*END

*D_NET *164 0.0244892
*CONN
*I *1731:B2 I *D sky130_fd_sc_hd__a22o_1
*I *1747:B2 I *D sky130_fd_sc_hd__a22o_1
*I *1723:B2 I *D sky130_fd_sc_hd__a22o_1
*I *1644:B2 I *D sky130_fd_sc_hd__a22o_1
*I *1739:B2 I *D sky130_fd_sc_hd__a22o_1
*I *1636:B2 I *D sky130_fd_sc_hd__a22o_1
*I *1660:B2 I *D sky130_fd_sc_hd__a22o_1
*I *1652:B2 I *D sky130_fd_sc_hd__a22o_1
*I *1623:Y O *D sky130_fd_sc_hd__inv_2
*CAP
1 *1731:B2 0.000411132
2 *1747:B2 0.000301294
3 *1723:B2 0
4 *1644:B2 8.23624e-06
5 *1739:B2 0.000888876
6 *1636:B2 0
7 *1660:B2 4.37591e-05
8 *1652:B2 0.000280612
9 *1623:Y 0
10 *164:107 0.00208576
11 *164:86 0.00223436
12 *164:73 0.00115783
13 *164:71 0.000705235
14 *164:60 8.20382e-05
15 *164:34 0.000689672
16 *164:28 0.000960244
17 *164:20 0.000973892
18 *164:18 0.00176553
19 *164:8 0.00132011
20 *164:4 0.000537978
21 *1644:B2 *179:10 2.5343e-05
22 *1644:B2 *183:10 4.77164e-06
23 *1644:B2 *265:34 3.34818e-06
24 *1652:B2 *185:8 8.79853e-05
25 *1652:B2 *190:18 1.94812e-05
26 *1652:B2 *192:6 2.07242e-05
27 *1660:B2 *187:10 4.21594e-06
28 *1660:B2 *190:18 0
29 *1660:B2 *421:10 8.62876e-05
30 *1731:B2 *263:120 4.9662e-05
31 *1731:B2 *409:133 0.000151718
32 *1731:B2 *410:39 0.000294877
33 *1731:B2 *416:169 0.000478647
34 *1731:B2 *425:8 0.000183733
35 *1739:B2 *1735:B1 7.42621e-05
36 *1739:B2 *1739:A1 3.15261e-05
37 *1739:B2 *1739:A2 7.59794e-05
38 *1739:B2 *1739:B1 2.64616e-05
39 *1739:B2 *265:69 0.00020047
40 *1739:B2 *270:30 3.0023e-05
41 *1739:B2 *410:72 4.5051e-05
42 *1747:B2 *1622:A 0
43 *1747:B2 *255:10 0
44 *1747:B2 *267:71 0
45 *1747:B2 *409:148 0
46 *1747:B2 *417:12 9.84794e-05
47 *1747:B2 *425:26 2.9885e-05
48 *164:8 *263:120 7.01251e-05
49 *164:8 *410:39 5.50106e-05
50 *164:8 *410:43 0.000349824
51 *164:18 *416:136 0.00017462
52 *164:18 *424:8 0.000180224
53 *164:18 *425:26 7.81073e-05
54 *164:18 *452:156 0
55 *164:18 *454:147 5.07109e-05
56 *164:28 *1880:A0 5.3304e-05
57 *164:28 *1880:S 2.93845e-05
58 *164:28 *265:85 0
59 *164:28 *322:12 8.85189e-05
60 *164:28 *330:12 0.000184527
61 *164:28 *407:159 0.000278634
62 *164:28 *407:167 5.19836e-05
63 *164:28 *454:20 1.52259e-05
64 *164:28 *454:22 0.000161911
65 *164:28 *454:26 5.56306e-05
66 *164:34 *1783:A1 0.000115
67 *164:34 *190:18 0
68 *164:34 *264:95 0.000692392
69 *164:34 *407:159 2.64616e-05
70 *164:34 *421:10 0.000108681
71 *164:60 *407:203 0.000277705
72 *164:60 *410:53 0.000144158
73 *164:71 *176:16 0
74 *164:71 *264:68 0.00114854
75 *164:71 *265:34 0.000156061
76 *164:71 *407:203 0
77 *164:71 *417:16 0
78 *164:73 *270:30 4.2062e-05
79 *164:73 *410:72 2.64616e-05
80 *164:86 *176:16 6.02277e-06
81 *164:86 *179:10 0.000171197
82 *164:86 *265:34 7.43617e-05
83 *164:86 *410:72 0.000194318
84 *164:107 *270:10 0.000177805
85 *164:107 *407:248 0.000180036
86 *31:14 *164:71 9.74132e-05
87 *33:12 *1652:B2 5.50049e-05
88 *55:10 *164:71 0.00058375
89 *150:8 *164:28 5.21024e-05
90 *163:16 *164:8 0.000181131
91 *163:20 *1747:B2 2.55642e-05
92 *163:20 *164:18 0.000445794
93 *163:22 *164:18 8.4047e-05
94 *163:44 *1739:B2 0.000993215
95 *163:44 *164:86 8.26672e-05
96 *163:88 *164:28 0
*RES
1 *1623:Y *164:4 23 
2 *164:4 *164:8 19.4329 
3 *164:8 *164:18 30.5979 
4 *164:18 *164:20 4.43286 
5 *164:20 *164:28 43.5057 
6 *164:28 *164:34 24.3214 
7 *164:34 *1652:B2 42.6814 
8 *164:34 *1660:B2 39.2014 
9 *164:20 *164:60 33.6664 
10 *164:60 *1636:B2 23 
11 *164:18 *164:71 48.1043 
12 *164:71 *164:73 2.05071 
13 *164:73 *1739:B2 41.6221 
14 *164:73 *164:86 19.8989 
15 *164:86 *1644:B2 38.3211 
16 *164:86 *164:107 39.7952 
17 *164:107 *1723:B2 23 
18 *164:8 *1747:B2 43.5307 
19 *164:4 *1731:B2 35.0764 
*END

*D_NET *165 0.00764828
*CONN
*I *1748:A I *D sky130_fd_sc_hd__nor2_2
*I *1672:A1 I *D sky130_fd_sc_hd__o2111a_1
*I *1670:A1 I *D sky130_fd_sc_hd__a21oi_1
*I *1713:A I *D sky130_fd_sc_hd__xnor2_1
*I *1803:A I *D sky130_fd_sc_hd__and2_2
*I *1624:Y O *D sky130_fd_sc_hd__inv_2
*CAP
1 *1748:A 9.71793e-05
2 *1672:A1 0
3 *1670:A1 0
4 *1713:A 2.34823e-05
5 *1803:A 0.000226633
6 *1624:Y 0
7 *165:55 0.000439539
8 *165:42 0.0016484
9 *165:29 0.0019897
10 *165:21 0.000984621
11 *165:4 0.000356719
12 *1748:A *1711:A1 1.09886e-05
13 *1748:A *1711:A2 2.02872e-05
14 *1748:A *1711:B1 0.000139357
15 *1748:A *232:10 9.67842e-05
16 *1803:A *1624:A 0.000139357
17 *1803:A *1803:B 0.000120631
18 *1803:A *1822:B 1.14154e-05
19 *1803:A *1885:D 5.3304e-05
20 *1803:A *413:36 4.95081e-05
21 *165:21 *1711:A2 8.3742e-05
22 *165:21 *450:226 0
23 *165:29 *1706:A1 7.38999e-05
24 *165:29 *1711:A1 3.02296e-05
25 *165:29 *1711:A2 1.6873e-05
26 *165:29 *1997:CLK 2.30292e-05
27 *165:29 *1997:D 5.67058e-05
28 *165:29 *1997:RESET_B 0.000178813
29 *165:29 *232:10 0
30 *165:29 *411:164 5.12328e-05
31 *165:29 *411:179 2.02872e-05
32 *165:42 *1706:A1 7.38255e-05
33 *165:42 *1713:B 0.00010655
34 *165:42 *207:8 3.06338e-05
35 *165:55 *1670:A2 2.93747e-05
36 *165:55 *199:10 0.000353839
37 *165:55 *207:8 1.32939e-05
38 *165:55 *438:99 5.30518e-05
39 *165:55 *438:155 4.49946e-05
40 *165:55 *470:10 0
*RES
1 *1624:Y *165:4 23 
2 *165:4 *1803:A 28.4479 
3 *165:4 *165:21 17.4339 
4 *165:21 *165:29 26.9004 
5 *165:29 *1713:A 23.4971 
6 *165:29 *165:42 18.8914 
7 *165:42 *1670:A1 23 
8 *165:42 *165:55 38.6379 
9 *165:55 *1672:A1 23 
10 *165:21 *1748:A 40.5168 
*END

*D_NET *166 0.000916045
*CONN
*I *1677:A2 I *D sky130_fd_sc_hd__a221o_1
*I *1625:Y O *D sky130_fd_sc_hd__inv_2
*CAP
1 *1677:A2 2.26366e-05
2 *1625:Y 0.000227955
3 *166:14 0.000250591
4 *1677:A2 *216:14 3.28708e-05
5 *166:14 *1627:A 5.50049e-05
6 *166:14 *1675:A_N 5.50049e-05
7 *166:14 *168:10 9.41704e-05
8 *166:14 *446:10 2.80512e-05
9 *166:14 *462:29 0.00014976
10 *166:14 *485:8 0
*RES
1 *1625:Y *166:14 43.075 
2 *166:14 *1677:A2 38.3832 
*END

*D_NET *167 0.00192445
*CONN
*I *1678:A2 I *D sky130_fd_sc_hd__o221ai_2
*I *1679:A2 I *D sky130_fd_sc_hd__a221o_1
*I *1626:Y O *D sky130_fd_sc_hd__inv_2
*CAP
1 *1678:A2 9.93151e-05
2 *1679:A2 0
3 *1626:Y 0.000391143
4 *167:14 8.86465e-05
5 *167:6 0.000579105
6 *1678:A2 *458:34 0
7 *167:6 *1678:C1 0.000139357
8 *167:6 *210:10 0.000139357
9 *167:6 *458:18 9.84851e-05
10 *167:6 *458:34 8.25584e-05
11 *167:6 *461:14 5.50049e-05
12 *167:14 *1679:A1 1.46586e-05
13 *167:14 *169:6 1.46586e-05
14 *167:14 *169:21 0.000166532
15 *167:14 *215:8 5.56306e-05
*RES
1 *1626:Y *167:6 30.2914 
2 *167:6 *167:14 32.4287 
3 *167:14 *1679:A2 23 
4 *167:6 *1678:A2 24.595 
*END

*D_NET *168 0.000672728
*CONN
*I *1677:B2 I *D sky130_fd_sc_hd__a221o_1
*I *1627:Y O *D sky130_fd_sc_hd__inv_2
*CAP
1 *1677:B2 1.53465e-05
2 *1627:Y 0.000152379
3 *168:10 0.000167726
4 *1677:B2 *1677:B1 8.72235e-06
5 *1677:B2 *216:14 2.85422e-05
6 *168:10 *1675:A_N 0.000136486
7 *168:10 *212:10 6.93553e-05
8 *166:14 *168:10 9.41704e-05
*RES
1 *1627:Y *168:10 41.0036 
2 *168:10 *1677:B2 38.3314 
*END

*D_NET *169 0.00102365
*CONN
*I *1678:B1 I *D sky130_fd_sc_hd__o221ai_2
*I *1679:B1 I *D sky130_fd_sc_hd__a221o_1
*I *1628:Y O *D sky130_fd_sc_hd__inv_2
*CAP
1 *1678:B1 0
2 *1679:B1 6.38366e-05
3 *1628:Y 0.000105608
4 *169:21 0.000147557
5 *169:6 0.000317002
6 *1679:B1 *1679:A1 6.17437e-06
7 *169:6 *1679:A1 0.000110483
8 *169:21 *215:8 1.94418e-05
9 *169:21 *458:12 1.19796e-05
10 *169:21 *458:18 6.03737e-05
11 *169:21 *483:10 0
12 *169:21 *487:10 0
13 *167:14 *169:6 1.46586e-05
14 *167:14 *169:21 0.000166532
*RES
1 *1628:Y *169:6 25.5271 
2 *169:6 *1679:B1 24.1186 
3 *169:6 *169:21 33.3143 
4 *169:21 *1678:B1 23 
*END

*D_NET *170 0.000928252
*CONN
*I *1630:B I *D sky130_fd_sc_hd__or2_1
*I *1629:X O *D sky130_fd_sc_hd__mux4_1
*CAP
1 *1630:B 0
2 *1629:X 0.000249396
3 *170:6 0.000249396
4 *170:6 *1781:S 2.32101e-05
5 *170:6 *231:45 4.75206e-05
6 *170:6 *307:27 9.41704e-05
7 *170:6 *455:136 0.000264559
*RES
1 *1629:X *170:6 27.9093 
2 *170:6 *1630:B 23 
*END

*D_NET *171 0.00218211
*CONN
*I *1636:A1 I *D sky130_fd_sc_hd__a22o_1
*I *1630:X O *D sky130_fd_sc_hd__or2_1
*CAP
1 *1636:A1 0.000704318
2 *1630:X 0.000133217
3 *171:8 0.000837536
4 *1636:A1 *1636:A2 3.22879e-05
5 *1636:A1 *424:14 0.000139352
6 *1636:A1 *424:25 4.08664e-05
7 *171:8 *263:95 4.83778e-05
8 *171:8 *263:110 6.21538e-05
9 *31:8 *1636:A1 1.73399e-05
10 *163:22 *171:8 0.000166666
*RES
1 *1630:X *171:8 42.3707 
2 *171:8 *1636:A1 49.1029 
*END

*D_NET *172 0.00414372
*CONN
*I *1632:A2 I *D sky130_fd_sc_hd__o21a_1
*I *1631:X O *D sky130_fd_sc_hd__mux4_1
*CAP
1 *1632:A2 0
2 *1631:X 0
3 *172:6 0.00132325
4 *172:4 0.00132325
5 *172:6 *407:69 0.000129522
6 *172:6 *407:71 0.000912384
7 *172:6 *409:160 2.93747e-05
8 *172:6 *409:166 0.000288308
9 *172:6 *436:48 0.000137625
*RES
1 *1631:X *172:4 23 
2 *172:4 *172:6 27.3014 
3 *172:6 *1632:A2 23 
*END

*D_NET *173 0.000384919
*CONN
*I *1636:A2 I *D sky130_fd_sc_hd__a22o_1
*I *1632:X O *D sky130_fd_sc_hd__o21a_1
*CAP
1 *1636:A2 0.000176316
2 *1632:X 0.000176316
3 *1636:A1 *1636:A2 3.22879e-05
*RES
1 *1632:X *1636:A2 49.0243 
*END

*D_NET *174 0.00456643
*CONN
*I *1635:A0 I *D sky130_fd_sc_hd__mux2_1
*I *1633:X O *D sky130_fd_sc_hd__mux4_1
*CAP
1 *1635:A0 0
2 *1633:X 0.000199571
3 *174:14 0.00103741
4 *174:8 0.00123699
5 *174:8 *408:178 0.00018262
6 *174:14 *1634:S1 0.00076189
7 *174:14 *1635:A1 5.50106e-05
8 *174:14 *1635:S 0.000313255
9 *174:14 *175:8 0
10 *174:14 *273:52 4.94073e-05
11 *174:14 *347:27 3.0647e-05
12 *174:14 *363:8 7.80251e-05
13 *174:14 *363:27 0.000161097
14 *174:14 *379:29 0
15 *174:14 *407:501 0
16 *174:14 *408:158 0.000276775
17 *174:14 *426:32 0
18 *174:14 *455:55 0
19 *174:14 *455:94 0.000183733
*RES
1 *1633:X *174:8 41.0036 
2 *174:8 *174:14 40.1264 
3 *174:14 *1635:A0 23 
*END

*D_NET *175 0.000745509
*CONN
*I *1635:A1 I *D sky130_fd_sc_hd__mux2_1
*I *1634:X O *D sky130_fd_sc_hd__mux4_1
*CAP
1 *1635:A1 4.24857e-05
2 *1634:X 0.000180648
3 *175:8 0.000223133
4 *175:8 *274:31 8.29273e-05
5 *175:8 *274:49 6.3568e-06
6 *175:8 *426:98 0.000114083
7 *120:8 *175:8 4.08641e-05
8 *174:14 *1635:A1 5.50106e-05
9 *174:14 *175:8 0
*RES
1 *1634:X *175:8 42.0186 
2 *175:8 *1635:A1 38.6214 
*END

*D_NET *176 0.0102099
*CONN
*I *1636:B1 I *D sky130_fd_sc_hd__a22o_1
*I *1635:X O *D sky130_fd_sc_hd__mux2_1
*CAP
1 *1636:B1 0
2 *1635:X 7.66282e-05
3 *176:16 0.000852779
4 *176:12 0.00245485
5 *176:8 0.0016787
6 *176:8 *273:52 9.75779e-05
7 *176:12 *1845:A0 3.71198e-05
8 *176:12 *1854:S 0.000105062
9 *176:12 *179:10 0
10 *176:12 *274:31 7.03766e-05
11 *176:12 *275:111 6.79006e-05
12 *176:12 *277:26 2.01531e-05
13 *176:12 *278:22 0
14 *176:12 *316:25 0
15 *176:12 *324:31 6.25829e-05
16 *176:12 *332:25 0.000141284
17 *176:12 *346:14 0
18 *176:12 *354:21 0.000169674
19 *176:12 *408:322 0.00133587
20 *176:12 *454:28 0
21 *176:12 *454:34 0
22 *176:12 *455:102 0
23 *176:12 *456:84 0.00116357
24 *176:16 *1772:A1 0
25 *176:16 *1772:S 2.96154e-05
26 *176:16 *179:10 9.88575e-05
27 *176:16 *264:26 0.000172656
28 *176:16 *265:34 0
29 *176:16 *265:55 0
30 *176:16 *316:25 0
31 *176:16 *323:29 0.000163352
32 *176:16 *407:203 0.000369054
33 *176:16 *408:384 3.99192e-05
34 *176:16 *455:136 0
35 *55:10 *176:16 0
36 *75:18 *176:12 0
37 *86:8 *176:12 0.000802042
38 *163:44 *176:16 0.000194309
39 *164:71 *176:16 0
40 *164:86 *176:16 6.02277e-06
*RES
1 *1635:X *176:8 39.0979 
2 *176:8 *176:12 43.7486 
3 *176:12 *176:16 34.1607 
4 *176:16 *1636:B1 23 
*END

*D_NET *177 0.00461965
*CONN
*I *1638:B I *D sky130_fd_sc_hd__or2_1
*I *1637:X O *D sky130_fd_sc_hd__mux4_1
*CAP
1 *1638:B 0
2 *1637:X 0.00118035
3 *177:18 0.000387924
4 *177:10 0.00156828
5 *177:10 *1879:A1 9.14693e-05
6 *177:10 *1935:CLK 1.59094e-05
7 *177:10 *231:65 0.000486246
8 *177:18 *1943:CLK 5.50106e-05
9 *177:18 *190:12 0.000515239
10 *177:18 *197:14 0
11 *177:18 *249:10 0.000144231
12 *1948:D *177:10 7.64987e-05
13 *149:10 *177:10 9.84851e-05
*RES
1 *1637:X *177:10 41.415 
2 *177:10 *177:18 39.8393 
3 *177:18 *1638:B 23 
*END

*D_NET *178 0.00248731
*CONN
*I *1644:A1 I *D sky130_fd_sc_hd__a22o_1
*I *1638:X O *D sky130_fd_sc_hd__or2_1
*CAP
1 *1644:A1 0
2 *1638:X 0.00101015
3 *178:8 0.00101015
4 *178:8 *1638:A 6.17437e-06
5 *178:8 *1943:CLK 1.21972e-05
6 *178:8 *267:26 0.000241291
7 *178:8 *316:14 1.30481e-05
8 *1917:D *178:8 9.1702e-06
9 *1943:D *178:8 0.000185123
*RES
1 *1638:X *178:8 36.5057 
2 *178:8 *1644:A1 23 
*END

*D_NET *179 0.000961198
*CONN
*I *1640:A2 I *D sky130_fd_sc_hd__o21a_1
*I *1639:X O *D sky130_fd_sc_hd__mux4_1
*CAP
1 *1640:A2 0
2 *1639:X 0.000249475
3 *179:10 0.000249475
4 *179:10 *183:10 1.27508e-05
5 *179:10 *263:26 9.84794e-05
6 *1644:B2 *179:10 2.5343e-05
7 *75:18 *179:10 5.56203e-05
8 *164:86 *179:10 0.000171197
9 *176:12 *179:10 0
10 *176:16 *179:10 9.88575e-05
*RES
1 *1639:X *179:10 43.8207 
2 *179:10 *1640:A2 38 
*END

*D_NET *180 0.000474719
*CONN
*I *1644:A2 I *D sky130_fd_sc_hd__a22o_1
*I *1640:X O *D sky130_fd_sc_hd__o21a_1
*CAP
1 *1644:A2 0
2 *1640:X 0.000109898
3 *180:10 0.000109898
4 *180:10 *265:34 9.73103e-05
5 *75:10 *180:10 0.000138143
6 *163:36 *180:10 1.94693e-05
*RES
1 *1640:X *180:10 40.5271 
2 *180:10 *1644:A2 38 
*END

*D_NET *181 0.00413703
*CONN
*I *1643:A0 I *D sky130_fd_sc_hd__mux2_1
*I *1641:X O *D sky130_fd_sc_hd__mux4_1
*CAP
1 *1643:A0 0
2 *1641:X 0.000407714
3 *181:14 0.0011756
4 *181:8 0.00158331
5 *181:8 *1891:A0 5.26733e-06
6 *181:8 *275:44 0.000220047
7 *181:8 *348:27 7.18992e-06
8 *181:14 *1641:A0 0
9 *181:14 *1643:A1 0.000272383
10 *181:14 *1865:A0 7.76364e-06
11 *181:14 *1970:CLK 9.39159e-05
12 *181:14 *272:48 0
13 *181:14 *276:123 0
14 *181:14 *348:27 1.69668e-05
15 *181:14 *356:27 4.4382e-05
16 *181:14 *408:342 0
17 *181:14 *429:12 8.26569e-05
18 *181:14 *429:73 0.000149444
19 *181:14 *429:84 7.03869e-05
*RES
1 *1641:X *181:8 43.8621 
2 *181:8 *181:14 37.8686 
3 *181:14 *1643:A0 23 
*END

*D_NET *182 0.00357323
*CONN
*I *1643:A1 I *D sky130_fd_sc_hd__mux2_1
*I *1642:X O *D sky130_fd_sc_hd__mux4_1
*CAP
1 *1643:A1 0.000322211
2 *1642:X 0.000621007
3 *182:8 0.000943218
4 *1643:A1 *1642:A0 6.25829e-05
5 *1643:A1 *2003:CLK 0.000402806
6 *1643:A1 *183:8 2.13733e-05
7 *1643:A1 *276:117 0.000462809
8 *1643:A1 *429:73 0.000117765
9 *1643:A1 *429:84 7.90568e-05
10 *182:8 *1642:A0 6.17437e-06
11 *182:8 *1642:A1 4.56101e-05
12 *182:8 *1642:A3 9.46983e-05
13 *182:8 *1642:S0 2.30292e-05
14 *182:8 *1810:A1 6.40395e-05
15 *182:8 *380:27 1.70074e-05
16 *182:8 *407:449 3.58084e-06
17 *182:8 *407:463 1.38758e-05
18 *181:14 *1643:A1 0.000272383
*RES
1 *1642:X *182:8 46.7207 
2 *182:8 *1643:A1 49.5171 
*END

*D_NET *183 0.00871008
*CONN
*I *1644:B1 I *D sky130_fd_sc_hd__a22o_1
*I *1643:X O *D sky130_fd_sc_hd__mux2_1
*CAP
1 *1644:B1 0
2 *1643:X 0.000767376
3 *183:10 0.0016227
4 *183:8 0.00239007
5 *183:8 *1838:A1 1.39956e-05
6 *183:8 *1838:S 0.000276667
7 *183:8 *2003:CLK 7.24484e-05
8 *183:8 *273:52 9.84794e-05
9 *183:10 *1744:S0 0
10 *183:10 *1808:A1 0.000358475
11 *183:10 *1845:A1 0.000185676
12 *183:10 *259:12 0
13 *183:10 *260:10 0
14 *183:10 *262:75 0
15 *183:10 *265:34 0.00044769
16 *183:10 *272:74 0.00042553
17 *183:10 *273:46 0.000211578
18 *183:10 *346:29 0.000164282
19 *183:10 *386:14 0.000354778
20 *183:10 *408:239 0.00040411
21 *183:10 *408:322 0
22 *183:10 *454:53 0.000178558
23 *183:10 *456:84 0
24 *183:10 *456:177 0.000482051
25 *1643:A1 *183:8 2.13733e-05
26 *1644:B2 *183:10 4.77164e-06
27 *75:18 *183:10 0.000216721
28 *179:10 *183:10 1.27508e-05
*RES
1 *1643:X *183:8 49.1029 
2 *183:8 *183:10 41.6979 
3 *183:10 *1644:B1 38 
*END

*D_NET *184 0.00385602
*CONN
*I *1646:B I *D sky130_fd_sc_hd__or2_1
*I *1645:X O *D sky130_fd_sc_hd__mux4_1
*CAP
1 *1646:B 0
2 *1645:X 0.000371895
3 *184:16 0.000867014
4 *184:10 0.00123891
5 *184:10 *1645:A3 0.000128401
6 *184:10 *1647:S1 5.20202e-05
7 *184:10 *2073:A 8.2832e-05
8 *184:10 *231:80 0
9 *184:10 *266:61 0
10 *184:10 *266:65 1.24376e-05
11 *184:10 *408:484 4.6318e-06
12 *184:10 *408:493 0.000193324
13 *184:16 *185:8 6.32777e-05
14 *184:16 *191:6 0.000313255
15 *184:16 *192:6 0.000528019
*RES
1 *1645:X *184:10 47.3629 
2 *184:10 *184:16 28.5057 
3 *184:16 *1646:B 23 
*END

*D_NET *185 0.00132479
*CONN
*I *1652:A1 I *D sky130_fd_sc_hd__a22o_1
*I *1646:X O *D sky130_fd_sc_hd__or2_1
*CAP
1 *1652:A1 0
2 *1646:X 0.000244872
3 *185:8 0.000244872
4 *185:8 *192:6 0.000164499
5 *1652:B2 *185:8 8.79853e-05
6 *33:12 *185:8 0.000519288
7 *184:16 *185:8 6.32777e-05
*RES
1 *1646:X *185:8 30.7886 
2 *185:8 *1652:A1 23 
*END

*D_NET *186 0.00225152
*CONN
*I *1648:A2 I *D sky130_fd_sc_hd__o21a_1
*I *1647:X O *D sky130_fd_sc_hd__mux4_1
*CAP
1 *1648:A2 0.000156012
2 *1647:X 0.000688133
3 *186:10 0.000844145
4 *1648:A2 *266:53 0.000143655
5 *1648:A2 *409:255 5.50106e-05
6 *1648:A2 *409:263 1.72202e-05
7 *186:10 *1647:A2 0.000144554
8 *186:10 *1647:A3 4.68395e-05
9 *186:10 *1647:S0 1.94693e-05
10 *186:10 *1647:S1 0
11 *186:10 *266:49 0
12 *97:8 *186:10 0.000136486
*RES
1 *1647:X *186:10 48.8336 
2 *186:10 *1648:A2 40.5271 
*END

*D_NET *187 0.000378521
*CONN
*I *1652:A2 I *D sky130_fd_sc_hd__a22o_1
*I *1648:X O *D sky130_fd_sc_hd__o21a_1
*CAP
1 *1652:A2 0
2 *1648:X 0.000171077
3 *187:10 0.000171077
4 *187:10 *190:18 2.76611e-06
5 *187:10 *409:263 0
6 *187:10 *410:96 2.93845e-05
7 *187:10 *421:10 0
8 *1660:B2 *187:10 4.21594e-06
*RES
1 *1648:X *187:10 40.5271 
2 *187:10 *1652:A2 38 
*END

*D_NET *188 0.000653305
*CONN
*I *1651:A0 I *D sky130_fd_sc_hd__mux2_1
*I *1649:X O *D sky130_fd_sc_hd__mux4_1
*CAP
1 *1651:A0 0
2 *1649:X 0.000187109
3 *188:10 0.000187109
4 *188:10 *2022:CLK 3.71369e-05
5 *188:10 *2050:CLK 6.79006e-05
6 *188:10 *190:12 0
7 *188:10 *197:14 0.000169674
8 *188:10 *408:247 4.37586e-06
*RES
1 *1649:X *188:10 41.8321 
2 *188:10 *1651:A0 38 
*END

*D_NET *189 0.00395796
*CONN
*I *1651:A1 I *D sky130_fd_sc_hd__mux2_1
*I *1650:X O *D sky130_fd_sc_hd__mux4_1
*CAP
1 *1651:A1 0
2 *1650:X 0.000900796
3 *189:14 0.000601193
4 *189:6 0.00150199
5 *189:6 *1649:A2 3.7122e-06
6 *189:6 *1649:A3 0.000222661
7 *189:6 *1857:A1 0.000354116
8 *189:6 *349:27 2.80924e-06
9 *189:6 *457:39 8.20126e-06
10 *189:6 *457:50 5.14746e-06
11 *189:14 *2050:CLK 5.12328e-05
12 *189:14 *253:10 0
13 *189:14 *277:60 0.000111148
14 *2050:D *189:14 0.000189687
15 *129:10 *189:6 5.26733e-06
*RES
1 *1650:X *189:6 35.0557 
2 *189:6 *189:14 39.3007 
3 *189:14 *1651:A1 23 
*END

*D_NET *190 0.0086222
*CONN
*I *1652:B1 I *D sky130_fd_sc_hd__a22o_1
*I *1651:X O *D sky130_fd_sc_hd__mux2_1
*CAP
1 *1652:B1 0
2 *1651:X 4.22538e-05
3 *190:18 0.00103917
4 *190:12 0.00199412
5 *190:8 0.000997211
6 *190:8 *2050:CLK 2.93845e-05
7 *190:12 *2050:CLK 1.97329e-05
8 *190:12 *197:14 0
9 *190:12 *253:10 0.00177679
10 *190:12 *265:69 7.00173e-05
11 *190:12 *408:402 0
12 *190:18 *1783:A0 0.000166513
13 *190:18 *192:6 5.50106e-05
14 *190:18 *265:69 0
15 *190:18 *309:14 0.000166513
16 *190:18 *310:27 0
17 *190:18 *317:14 0.000215782
18 *190:18 *407:69 0
19 *190:18 *408:402 9.94477e-05
20 *190:18 *408:484 0.000191139
21 *190:18 *416:136 0.00010016
22 *190:18 *421:10 0
23 *190:18 *421:97 0.000203108
24 *1652:B2 *190:18 1.94812e-05
25 *1660:B2 *190:18 0
26 *58:8 *190:18 0.000592303
27 *65:10 *190:18 0
28 *66:8 *190:18 0.000326053
29 *164:34 *190:18 0
30 *177:18 *190:12 0.000515239
31 *187:10 *190:18 2.76611e-06
32 *188:10 *190:12 0
*RES
1 *1651:X *190:8 38.6214 
2 *190:8 *190:12 25.7168 
3 *190:12 *190:18 43.0575 
4 *190:18 *1652:B1 23 
*END

*D_NET *191 0.00201775
*CONN
*I *1654:B I *D sky130_fd_sc_hd__or2_1
*I *1653:X O *D sky130_fd_sc_hd__mux4_1
*CAP
1 *1654:B 0
2 *1653:X 0.00065052
3 *191:6 0.00065052
4 *191:6 *408:501 0.000403458
5 *184:16 *191:6 0.000313255
*RES
1 *1653:X *191:6 36.485 
2 *191:6 *1654:B 23 
*END

*D_NET *192 0.00106968
*CONN
*I *1660:A1 I *D sky130_fd_sc_hd__a22o_1
*I *1654:X O *D sky130_fd_sc_hd__or2_1
*CAP
1 *1660:A1 0
2 *1654:X 0.000150714
3 *192:6 0.000150714
4 *1652:B2 *192:6 2.07242e-05
5 *184:16 *192:6 0.000528019
6 *185:8 *192:6 0.000164499
7 *190:18 *192:6 5.50106e-05
*RES
1 *1654:X *192:6 28.8621 
2 *192:6 *1660:A1 23 
*END

*D_NET *193 0.00200463
*CONN
*I *1656:A2 I *D sky130_fd_sc_hd__o21a_1
*I *1655:X O *D sky130_fd_sc_hd__mux4_1
*CAP
1 *1656:A2 0
2 *1655:X 0.000536922
3 *193:10 0.000536922
4 *193:10 *197:20 0.000777416
5 *193:10 *310:27 8.16356e-05
6 *193:10 *408:394 5.33724e-05
7 *193:10 *421:97 0
8 *65:10 *193:10 1.83667e-05
*RES
1 *1655:X *193:10 49.9314 
2 *193:10 *1656:A2 38 
*END

*D_NET *194 0.00147026
*CONN
*I *1660:A2 I *D sky130_fd_sc_hd__a22o_1
*I *1656:X O *D sky130_fd_sc_hd__o21a_1
*CAP
1 *1660:A2 0
2 *1656:X 0.000314589
3 *194:12 0.000314589
4 *194:12 *265:85 0.000378492
5 *194:12 *410:96 0.000323876
6 *194:12 *421:78 0.000138718
7 *163:88 *194:12 0
*RES
1 *1656:X *194:12 46.6586 
2 *194:12 *1660:A2 38 
*END

*D_NET *195 0.000494451
*CONN
*I *1659:A0 I *D sky130_fd_sc_hd__mux2_1
*I *1657:X O *D sky130_fd_sc_hd__mux4_1
*CAP
1 *1659:A0 8.22984e-05
2 *1657:X 8.22984e-05
3 *1659:A0 *2006:CLK 0.000226306
4 *1659:A0 *196:8 4.94192e-05
5 *1659:A0 *197:8 5.41288e-05
*RES
1 *1657:X *1659:A0 49.0243 
*END

*D_NET *196 0.00350441
*CONN
*I *1659:A1 I *D sky130_fd_sc_hd__mux2_1
*I *1658:X O *D sky130_fd_sc_hd__mux4_1
*CAP
1 *1659:A1 0
2 *1658:X 0.00151459
3 *196:8 0.00151459
4 *196:8 *1657:A0 9.41704e-05
5 *196:8 *1657:A3 0.000138056
6 *196:8 *2006:CLK 1.32939e-05
7 *196:8 *197:8 0.00010018
8 *196:8 *350:29 1.01712e-05
9 *196:8 *408:278 6.99492e-05
10 *1659:A0 *196:8 4.94192e-05
*RES
1 *1658:X *196:8 43.0514 
2 *196:8 *1659:A1 23 
*END

*D_NET *197 0.0103754
*CONN
*I *1660:B1 I *D sky130_fd_sc_hd__a22o_1
*I *1659:X O *D sky130_fd_sc_hd__mux2_1
*CAP
1 *1660:B1 0
2 *1659:X 2.03433e-05
3 *197:20 0.000714602
4 *197:14 0.00307662
5 *197:8 0.00238236
6 *197:14 *1943:CLK 0.000218952
7 *197:14 *2050:CLK 2.72055e-05
8 *197:14 *2056:CLK 0.000184174
9 *197:14 *265:69 0.000196487
10 *197:14 *272:84 5.79466e-05
11 *197:14 *310:27 5.17601e-05
12 *197:14 *409:166 0
13 *197:14 *409:174 0
14 *197:14 *409:176 0
15 *197:14 *409:180 0
16 *197:14 *428:17 9.00646e-05
17 *197:14 *428:19 5.3656e-05
18 *197:14 *428:23 2.89256e-05
19 *197:14 *428:66 0.00012468
20 *197:14 *428:82 5.68527e-05
21 *197:14 *434:72 0.000650689
22 *197:20 *265:85 0
23 *197:20 *310:27 1.01065e-05
24 *197:20 *409:166 0
25 *197:20 *410:96 0.000654629
26 *197:20 *421:10 0.000450174
27 *1659:A0 *197:8 5.41288e-05
28 *48:8 *197:14 0.000114092
29 *65:10 *197:20 5.76048e-05
30 *152:10 *197:14 5.21024e-05
31 *177:18 *197:14 0
32 *188:10 *197:14 0.000169674
33 *190:12 *197:14 0
34 *193:10 *197:20 0.000777416
35 *196:8 *197:8 0.00010018
*RES
1 *1659:X *197:8 39.0979 
2 *197:8 *197:14 49.6832 
3 *197:14 *197:20 35.3104 
4 *197:20 *1660:B1 23 
*END

*D_NET *198 0.00299719
*CONN
*I *1670:A2 I *D sky130_fd_sc_hd__a21oi_1
*I *1662:B I *D sky130_fd_sc_hd__xnor2_1
*I *1672:A2 I *D sky130_fd_sc_hd__o2111a_1
*I *1661:X O *D sky130_fd_sc_hd__xor2_1
*CAP
1 *1670:A2 9.50827e-05
2 *1662:B 9.72225e-05
3 *1672:A2 0.000209939
4 *1661:X 0.000137911
5 *198:12 0.000376748
6 *198:10 0.00030258
7 *1662:B *199:10 2.64616e-05
8 *1670:A2 *207:8 9.91701e-05
9 *1672:A2 *1672:C1 0.000352538
10 *1672:A2 *1672:D1 9.41704e-05
11 *1672:A2 *199:18 6.17437e-06
12 *1672:A2 *199:38 4.67488e-05
13 *1672:A2 *438:87 0.000215791
14 *1672:A2 *438:99 0.000194309
15 *198:10 *1672:C1 6.25829e-05
16 *198:10 *2124:A 5.3304e-05
17 *198:10 *438:155 0.000154147
18 *198:12 *1672:C1 0.000223043
19 *198:12 *438:99 5.24393e-05
20 *198:12 *438:155 0.000167452
21 *165:55 *1670:A2 2.93747e-05
*RES
1 *1661:X *198:10 40.8793 
2 *198:10 *198:12 2.96214 
3 *198:12 *1672:A2 44.525 
4 *198:12 *1662:B 39.5743 
5 *198:10 *1670:A2 40.0507 
*END

*D_NET *199 0.00253501
*CONN
*I *1663:B I *D sky130_fd_sc_hd__xnor2_1
*I *1671:B I *D sky130_fd_sc_hd__or2_1
*I *1668:B I *D sky130_fd_sc_hd__nand2_1
*I *1662:Y O *D sky130_fd_sc_hd__xnor2_1
*CAP
1 *1663:B 0
2 *1671:B 0
3 *1668:B 1.91513e-05
4 *1662:Y 0.000304169
5 *199:38 0.000136042
6 *199:18 0.00017079
7 *199:12 0.000287681
8 *199:10 0.000304169
9 *1668:B *1671:A 5.67058e-05
10 *199:10 *438:87 0.000268231
11 *199:10 *438:99 0.000130424
12 *199:10 *470:10 2.64616e-05
13 *199:18 *1671:A 0.00010018
14 *199:18 *1672:D1 4.12707e-05
15 *199:18 *205:6 4.19743e-05
16 *199:38 *209:10 7.28526e-05
17 *199:38 *438:87 0.000141678
18 *1662:B *199:10 2.64616e-05
19 *1672:A2 *199:18 6.17437e-06
20 *1672:A2 *199:38 4.67488e-05
21 *165:55 *199:10 0.000353839
*RES
1 *1662:Y *199:10 45.0014 
2 *199:10 *199:12 15 
3 *199:12 *199:18 3.99786 
4 *199:18 *1668:B 23.6214 
5 *199:18 *1671:B 23 
6 *199:12 *199:38 33.3557 
7 *199:38 *1663:B 23 
*END

*D_NET *200 0.00143058
*CONN
*I *1667:S I *D sky130_fd_sc_hd__mux2_1
*I *1663:Y O *D sky130_fd_sc_hd__xnor2_1
*CAP
1 *1667:S 8.93929e-05
2 *1663:Y 0.000436295
3 *200:10 0.000525688
4 *200:10 *1926:RESET_B 5.50106e-05
5 *200:10 *201:10 0
6 *200:10 *202:10 0.000187986
7 *200:10 *204:23 1.4471e-05
8 *200:10 *437:14 0.000121737
9 *200:10 *438:41 0
10 *200:10 *438:55 0
*RES
1 *1663:Y *200:10 46.5136 
2 *200:10 *1667:S 39.5743 
*END

*D_NET *201 0.00154621
*CONN
*I *1665:B I *D sky130_fd_sc_hd__nor2_1
*I *1666:B I *D sky130_fd_sc_hd__and2_1
*I *1664:X O *D sky130_fd_sc_hd__xor2_1
*CAP
1 *1665:B 7.51442e-05
2 *1666:B 0
3 *1664:X 0.000184162
4 *201:20 0.000427976
5 *201:10 0.000536994
6 *1665:B *1665:A 4.94223e-05
7 *1665:B *202:10 2.18506e-05
8 *1665:B *412:271 5.52357e-05
9 *201:10 *203:10 4.08537e-05
10 *201:10 *432:45 0
11 *201:10 *463:10 0
12 *201:20 *202:10 8.48502e-06
13 *201:20 *203:10 9.43803e-05
14 *201:20 *204:23 5.17057e-05
15 *200:10 *201:10 0
*RES
1 *1664:X *201:10 41.3557 
2 *201:10 *201:20 20.0957 
3 *201:20 *1666:B 23 
4 *201:20 *1665:B 25.03 
*END

*D_NET *202 0.00140022
*CONN
*I *1667:A0 I *D sky130_fd_sc_hd__mux2_1
*I *1665:Y O *D sky130_fd_sc_hd__nor2_1
*CAP
1 *1667:A0 0
2 *1665:Y 0.000223703
3 *202:10 0.000223703
4 *202:10 *1665:A 5.50106e-05
5 *202:10 *1699:A2 0.000306332
6 *202:10 *203:10 0.000138718
7 *202:10 *204:23 0.000181125
8 *202:10 *412:271 5.3304e-05
9 *1665:B *202:10 2.18506e-05
10 *200:10 *202:10 0.000187986
11 *201:20 *202:10 8.48502e-06
*RES
1 *1665:Y *202:10 44.5664 
2 *202:10 *1667:A0 38 
*END

*D_NET *203 0.000762264
*CONN
*I *1667:A1 I *D sky130_fd_sc_hd__mux2_1
*I *1666:X O *D sky130_fd_sc_hd__and2_1
*CAP
1 *1667:A1 0
2 *1666:X 0.000154047
3 *203:10 0.000154047
4 *203:10 *204:23 0.000180218
5 *201:10 *203:10 4.08537e-05
6 *201:20 *203:10 9.43803e-05
7 *202:10 *203:10 0.000138718
*RES
1 *1666:X *203:10 41.9564 
2 *203:10 *1667:A1 38 
*END

*D_NET *204 0.00144439
*CONN
*I *1699:A1 I *D sky130_fd_sc_hd__a21boi_2
*I *1673:A I *D sky130_fd_sc_hd__and2_1
*I *1667:X O *D sky130_fd_sc_hd__mux2_1
*CAP
1 *1699:A1 0
2 *1673:A 7.26875e-05
3 *1667:X 0
4 *204:23 0.000231165
5 *204:4 0.000303853
6 *1673:A *437:14 2.93747e-05
7 *204:23 *1699:A2 0.000114575
8 *204:23 *225:8 5.37348e-06
9 *204:23 *437:14 9.33203e-05
10 *204:23 *438:41 0.000166522
11 *200:10 *204:23 1.4471e-05
12 *201:20 *204:23 5.17057e-05
13 *202:10 *204:23 0.000181125
14 *203:10 *204:23 0.000180218
*RES
1 *1667:X *204:4 23 
2 *204:4 *1673:A 24.4707 
3 *204:4 *204:23 36.7114 
4 *204:23 *1699:A1 23 
*END

*D_NET *205 0.00104852
*CONN
*I *1672:B1 I *D sky130_fd_sc_hd__o2111a_1
*I *1668:Y O *D sky130_fd_sc_hd__nand2_1
*CAP
1 *1672:B1 0
2 *1668:Y 0.000320908
3 *205:6 0.000320908
4 *205:6 *1671:A 0.000187129
5 *205:6 *1672:D1 0.000177604
6 *199:18 *205:6 4.19743e-05
*RES
1 *1668:Y *205:6 27.9093 
2 *205:6 *1672:B1 23 
*END

*D_NET *206 0.000248265
*CONN
*I *1670:B1 I *D sky130_fd_sc_hd__a21oi_1
*I *1669:Y O *D sky130_fd_sc_hd__xnor2_1
*CAP
1 *1670:B1 0
2 *1669:Y 0.000124133
3 *206:8 0.000124133
4 *206:8 *438:155 0
5 *206:8 *461:20 0
*RES
1 *1669:Y *206:8 40.2579 
2 *206:8 *1670:B1 38 
*END

*D_NET *207 0.00188241
*CONN
*I *1672:C1 I *D sky130_fd_sc_hd__o2111a_1
*I *1670:Y O *D sky130_fd_sc_hd__a21oi_1
*CAP
1 *1672:C1 0.000302028
2 *1670:Y 0.000222754
3 *207:8 0.000524782
4 *1672:C1 *465:10 5.15848e-05
5 *1670:A2 *207:8 9.91701e-05
6 *1672:A2 *1672:C1 0.000352538
7 *165:42 *207:8 3.06338e-05
8 *165:55 *207:8 1.32939e-05
9 *198:10 *1672:C1 6.25829e-05
10 *198:12 *1672:C1 0.000223043
*RES
1 *1670:Y *207:8 41.9564 
2 *207:8 *1672:C1 46.2443 
*END

*D_NET *208 0.000623817
*CONN
*I *1672:D1 I *D sky130_fd_sc_hd__o2111a_1
*I *1671:X O *D sky130_fd_sc_hd__or2_1
*CAP
1 *1672:D1 0.000154158
2 *1671:X 0.000154158
3 *1672:D1 *209:10 2.45549e-06
4 *1672:A2 *1672:D1 9.41704e-05
5 *199:18 *1672:D1 4.12707e-05
6 *205:6 *1672:D1 0.000177604
*RES
1 *1671:X *1672:D1 49.5007 
*END

*D_NET *209 0.00300688
*CONN
*I *1699:A2 I *D sky130_fd_sc_hd__a21boi_2
*I *1673:B I *D sky130_fd_sc_hd__and2_1
*I *1672:X O *D sky130_fd_sc_hd__o2111a_1
*CAP
1 *1699:A2 0.000418401
2 *1673:B 0.000188666
3 *1672:X 0.000405167
4 *209:10 0.00101223
5 *1673:B *412:271 5.94125e-05
6 *1673:B *438:41 0.000101575
7 *1699:A2 *225:8 1.32939e-05
8 *209:10 *412:271 0.000129504
9 *209:10 *438:41 2.60152e-05
10 *209:10 *438:55 1.22906e-05
11 *209:10 *438:87 0
12 *209:10 *464:8 0.00014411
13 *1672:D1 *209:10 2.45549e-06
14 *2106:A *1673:B 0
15 *199:38 *209:10 7.28526e-05
16 *202:10 *1699:A2 0.000306332
17 *204:23 *1699:A2 0.000114575
*RES
1 *1672:X *209:10 46.41 
2 *209:10 *1673:B 41.6664 
3 *209:10 *1699:A2 45.0014 
*END

*D_NET *210 0.000715911
*CONN
*I *1679:C1 I *D sky130_fd_sc_hd__a221o_1
*I *1674:X O *D sky130_fd_sc_hd__and2b_1
*CAP
1 *1679:C1 0
2 *1674:X 0.000165588
3 *210:10 0.000165588
4 *210:10 *458:18 0.000141879
5 *210:10 *462:12 1.94522e-05
6 *210:10 *483:10 8.4047e-05
7 *167:6 *210:10 0.000139357
*RES
1 *1674:X *210:10 41.48 
2 *210:10 *1679:C1 38 
*END

*D_NET *211 0.00174602
*CONN
*I *1678:C1 I *D sky130_fd_sc_hd__o221ai_2
*I *1675:Y O *D sky130_fd_sc_hd__nand2b_1
*CAP
1 *1678:C1 3.7965e-05
2 *1675:Y 0.000335548
3 *211:10 0.000373513
4 *1678:C1 *458:34 0.000139357
5 *211:10 *1625:A 5.3304e-05
6 *211:10 *1675:A_N 0
7 *211:10 *212:10 0.000138727
8 *211:10 *446:59 1.47563e-05
9 *211:10 *458:34 0.000346234
10 *211:10 *459:29 0.000137651
11 *211:10 *462:12 2.96051e-05
12 *211:10 *483:10 0
13 *167:6 *1678:C1 0.000139357
*RES
1 *1675:Y *211:10 45.1257 
2 *211:10 *1678:C1 39.5743 
*END

*D_NET *212 0.00172027
*CONN
*I *1677:C1 I *D sky130_fd_sc_hd__a221o_1
*I *1676:X O *D sky130_fd_sc_hd__xor2_1
*CAP
1 *1677:C1 0
2 *1676:X 0.000651126
3 *212:10 0.000651126
4 *212:10 *1675:A_N 2.10885e-05
5 *212:10 *458:34 0.000188849
6 *212:10 *462:37 0
7 *168:10 *212:10 6.93553e-05
8 *211:10 *212:10 0.000138727
*RES
1 *1676:X *212:10 47.6321 
2 *212:10 *1677:C1 38 
*END

*D_NET *213 0.00140331
*CONN
*I *1680:A I *D sky130_fd_sc_hd__nor3_1
*I *1681:A1 I *D sky130_fd_sc_hd__o31a_1
*I *1677:X O *D sky130_fd_sc_hd__a221o_1
*CAP
1 *1680:A 0.000420242
2 *1681:A1 9.12573e-05
3 *1677:X 3.71756e-05
4 *213:6 0.000548675
5 *1680:A *1680:B 1.32939e-05
6 *1680:A *1680:C 9.40949e-05
7 *1680:A *214:14 4.66047e-05
8 *1680:A *215:12 5.50106e-05
9 *1681:A1 *1677:B1 0
10 *1681:A1 *1680:B 4.00259e-06
11 *1681:A1 *1680:C 0
12 *1681:A1 *214:14 6.64264e-05
13 *1681:A1 *216:14 1.32314e-05
14 *213:6 *216:14 1.32939e-05
*RES
1 *1677:X *213:6 23.6214 
2 *213:6 *1681:A1 25.2993 
3 *213:6 *1680:A 29.235 
*END

*D_NET *214 0.00105641
*CONN
*I *1681:A2 I *D sky130_fd_sc_hd__o31a_1
*I *1680:B I *D sky130_fd_sc_hd__nor3_1
*I *1678:Y O *D sky130_fd_sc_hd__o221ai_2
*CAP
1 *1681:A2 0
2 *1680:B 0.000164133
3 *1678:Y 0.000122432
4 *214:14 0.000203214
5 *214:8 0.000161513
6 *1680:B *1680:C 0.000113508
7 *1680:B *215:12 1.22822e-05
8 *1680:B *439:10 5.50049e-05
9 *214:8 *215:8 6.93449e-05
10 *214:8 *435:10 0
11 *214:8 *462:29 0
12 *214:14 *1680:C 1.14154e-05
13 *214:14 *215:12 1.32314e-05
14 *1680:A *1680:B 1.32939e-05
15 *1680:A *214:14 4.66047e-05
16 *1681:A1 *1680:B 4.00259e-06
17 *1681:A1 *214:14 6.64264e-05
*RES
1 *1678:Y *214:8 40.2579 
2 *214:8 *214:14 16.595 
3 *214:14 *1680:B 26.9979 
4 *214:14 *1681:A2 23 
*END

*D_NET *215 0.00115371
*CONN
*I *1681:A3 I *D sky130_fd_sc_hd__o31a_1
*I *1680:C I *D sky130_fd_sc_hd__nor3_1
*I *1679:X O *D sky130_fd_sc_hd__a221o_1
*CAP
1 *1681:A3 0
2 *1680:C 9.8343e-05
3 *1679:X 0.000183228
4 *215:12 0.000109905
5 *215:8 0.00019479
6 *215:8 *1679:A1 4.06512e-05
7 *215:8 *435:10 5.21127e-05
8 *215:8 *485:8 3.07161e-05
9 *1680:A *1680:C 9.40949e-05
10 *1680:A *215:12 5.50106e-05
11 *1680:B *1680:C 0.000113508
12 *1680:B *215:12 1.22822e-05
13 *1681:A1 *1680:C 0
14 *167:14 *215:8 5.56306e-05
15 *169:21 *215:8 1.94418e-05
16 *214:8 *215:8 6.93449e-05
17 *214:14 *1680:C 1.14154e-05
18 *214:14 *215:12 1.32314e-05
*RES
1 *1679:X *215:8 42.3707 
2 *215:8 *215:12 15.6214 
3 *215:12 *1680:C 26.045 
4 *215:12 *1681:A3 23 
*END

*D_NET *216 0.00779923
*CONN
*I *1683:B I *D sky130_fd_sc_hd__nor2_1
*I *1685:C I *D sky130_fd_sc_hd__and3_1
*I *1686:A2 I *D sky130_fd_sc_hd__a21oi_1
*I *1682:B I *D sky130_fd_sc_hd__and2_1
*I *1681:X O *D sky130_fd_sc_hd__o31a_1
*CAP
1 *1683:B 0
2 *1685:C 0.000322816
3 *1686:A2 0
4 *1682:B 0.000299337
5 *1681:X 0.0016665
6 *216:37 0.00044061
7 *216:22 0.00063558
8 *216:18 0.000298723
9 *216:14 0.00174678
10 *1682:B *217:10 0.000254387
11 *1682:B *407:6 0.00014196
12 *1682:B *407:611 0.000231764
13 *1685:C *1685:B 0
14 *1685:C *218:23 6.07611e-06
15 *1685:C *220:8 0.00014964
16 *1685:C *409:16 9.0543e-05
17 *1685:C *415:12 0.000225256
18 *1685:C *415:27 3.51105e-05
19 *216:14 *1677:B1 3.16697e-05
20 *216:14 *1905:D 6.62899e-05
21 *216:14 *1905:RESET_B 2.56078e-05
22 *216:14 *418:16 0.000490778
23 *216:14 *418:20 3.17634e-05
24 *216:14 *486:12 5.773e-05
25 *216:14 *493:8 2.07242e-05
26 *216:18 *1688:B 3.58813e-05
27 *216:18 *218:23 3.34247e-05
28 *216:18 *418:16 0
29 *216:18 *493:8 0.000143655
30 *216:22 *1683:A 0
31 *216:22 *2027:CLK 0
32 *216:22 *218:23 6.79006e-05
33 *216:37 *1685:B 0
34 *216:37 *217:10 4.96264e-05
35 *216:37 *218:23 0.000111158
36 *216:37 *407:624 0
37 *1677:A2 *216:14 3.28708e-05
38 *1677:B2 *216:14 2.85422e-05
39 *1681:A1 *216:14 1.32314e-05
40 *213:6 *216:14 1.32939e-05
*RES
1 *1681:X *216:14 49.9079 
2 *216:14 *216:18 2.77571 
3 *216:18 *216:22 17.9621 
4 *216:22 *1682:B 46.41 
5 *216:22 *216:37 2.96214 
6 *216:37 *1686:A2 38 
7 *216:37 *1685:C 45.7575 
8 *216:18 *1683:B 23 
*END

*D_NET *217 0.00158757
*CONN
*I *1684:A I *D sky130_fd_sc_hd__nor2_1
*I *1682:X O *D sky130_fd_sc_hd__and2_1
*CAP
1 *1684:A 0.000119729
2 *1682:X 0.000477096
3 *217:10 0.000596825
4 *1684:A *1686:A1 5.50106e-05
5 *217:10 *1685:B 1.19796e-05
6 *217:10 *407:624 2.29192e-05
7 *1682:B *217:10 0.000254387
8 *216:37 *217:10 4.96264e-05
*RES
1 *1682:X *217:10 45.4157 
2 *217:10 *1684:A 40.0714 
*END

*D_NET *218 0.00162174
*CONN
*I *1684:B I *D sky130_fd_sc_hd__nor2_1
*I *1688:B I *D sky130_fd_sc_hd__xnor2_1
*I *1683:Y O *D sky130_fd_sc_hd__nor2_1
*CAP
1 *1684:B 0
2 *1688:B 0.000155971
3 *1683:Y 0
4 *218:23 0.000329211
5 *218:4 0.000485182
6 *1688:B *1683:A 0.00014196
7 *1688:B *493:8 4.19743e-05
8 *218:23 *2027:CLK 2.5415e-05
9 *218:23 *415:27 0.000161121
10 *218:23 *488:10 2.64616e-05
11 *1685:C *218:23 6.07611e-06
12 *216:18 *1688:B 3.58813e-05
13 *216:18 *218:23 3.34247e-05
14 *216:22 *218:23 6.79006e-05
15 *216:37 *218:23 0.000111158
*RES
1 *1683:Y *218:4 23 
2 *218:4 *1688:B 26.8529 
3 *218:4 *218:23 36.4421 
4 *218:23 *1684:B 23 
*END

*D_NET *219 0.00227618
*CONN
*I *1689:B I *D sky130_fd_sc_hd__and2_1
*I *1687:A I *D sky130_fd_sc_hd__nor2_1
*I *1690:B I *D sky130_fd_sc_hd__nor2_1
*I *1685:X O *D sky130_fd_sc_hd__and3_1
*CAP
1 *1689:B 0.000268103
2 *1687:A 0
3 *1690:B 0.000119808
4 *1685:X 0.000210408
5 *219:21 0.000396875
6 *219:6 0.000458988
7 *1689:B *1691:B 0
8 *1689:B *221:8 0
9 *1689:B *409:16 0
10 *1689:B *417:91 5.41385e-05
11 *1689:B *417:102 6.7063e-05
12 *1689:B *489:8 0.000116314
13 *1690:B *1690:A 0.000187129
14 *1690:B *494:10 0.000230604
15 *219:6 *1690:A 4.94192e-05
16 *219:6 *1692:B 5.41385e-05
17 *219:6 *409:16 1.40958e-05
18 *219:21 *1691:B 0
19 *219:21 *222:8 0
20 *219:21 *415:12 4.90994e-05
*RES
1 *1685:X *219:6 26.0036 
2 *219:6 *1690:B 27.35 
3 *219:6 *219:21 17.2579 
4 *219:21 *1687:A 38 
5 *219:21 *1689:B 43.7586 
*END

*D_NET *220 0.0016846
*CONN
*I *1687:B I *D sky130_fd_sc_hd__nor2_1
*I *1692:B I *D sky130_fd_sc_hd__xnor2_1
*I *1686:Y O *D sky130_fd_sc_hd__a21oi_1
*CAP
1 *1687:B 0.000227474
2 *1692:B 2.44422e-05
3 *1686:Y 0.000148189
4 *220:8 0.000400105
5 *1687:B *1685:B 2.95125e-05
6 *1687:B *409:16 0
7 *1687:B *410:22 0.000182832
8 *1687:B *415:12 5.68527e-05
9 *1692:B *409:16 9.84851e-05
10 *220:8 *1685:B 9.17704e-05
11 *220:8 *304:8 0.00019747
12 *220:8 *415:12 2.36844e-05
13 *1685:C *220:8 0.00014964
14 *219:6 *1692:B 5.41385e-05
*RES
1 *1686:Y *220:8 43.075 
2 *220:8 *1692:B 39.0979 
3 *220:8 *1687:B 43.1579 
*END

*D_NET *221 0.00309449
*CONN
*I *1693:B I *D sky130_fd_sc_hd__nor2_1
*I *1694:B I *D sky130_fd_sc_hd__nand2_1
*I *1691:A I *D sky130_fd_sc_hd__nor2_1
*I *1689:X O *D sky130_fd_sc_hd__and2_1
*CAP
1 *1693:B 3.35911e-05
2 *1694:B 0.000149662
3 *1691:A 0.000271315
4 *1689:X 0.00012794
5 *221:12 0.000689579
6 *221:8 0.000430132
7 *1691:A *1691:B 0.000185428
8 *1691:A *446:151 0.000316239
9 *1694:B *1694:A 0.000162559
10 *1694:B *224:12 0
11 *221:8 *1693:A 5.3304e-05
12 *221:8 *417:102 0.00018282
13 *221:12 *1694:A 2.71291e-05
14 *221:12 *2029:CLK 0.000169683
15 *221:12 *223:8 0.000141879
16 *221:12 *224:12 0
17 *221:12 *410:10 9.3813e-05
18 *221:12 *417:108 5.94125e-05
19 *1689:B *221:8 0
*RES
1 *1689:X *221:8 26.0243 
2 *221:8 *221:12 21.1314 
3 *221:12 *1691:A 44.8357 
4 *221:12 *1694:B 41.5836 
5 *221:8 *1693:B 23.6214 
*END

*D_NET *222 0.00180709
*CONN
*I *1691:B I *D sky130_fd_sc_hd__nor2_1
*I *1696:B I *D sky130_fd_sc_hd__xnor2_1
*I *1690:Y O *D sky130_fd_sc_hd__nor2_1
*CAP
1 *1691:B 0.000507963
2 *1696:B 0
3 *1690:Y 0.000112481
4 *222:8 0.000620444
5 *1691:B *409:297 9.63918e-05
6 *1691:B *410:10 0
7 *1691:B *410:16 0
8 *1691:B *417:108 0
9 *1691:B *446:151 0.000185428
10 *1691:B *490:10 5.561e-05
11 *222:8 *417:108 0
12 *222:8 *495:8 4.334e-05
13 *1689:B *1691:B 0
14 *1691:A *1691:B 0.000185428
15 *219:21 *1691:B 0
16 *219:21 *222:8 0
*RES
1 *1690:Y *222:8 39.9057 
2 *222:8 *1696:B 38 
3 *222:8 *1691:B 48.6471 
*END

*D_NET *223 0.000753619
*CONN
*I *1698:B I *D sky130_fd_sc_hd__xnor2_1
*I *1695:A_N I *D sky130_fd_sc_hd__and2b_1
*I *1693:Y O *D sky130_fd_sc_hd__nor2_1
*CAP
1 *1698:B 0.000154616
2 *1695:A_N 5.145e-05
3 *1693:Y 7.34766e-05
4 *223:10 0.000206066
5 *223:8 7.34766e-05
6 *1698:B *491:10 4.06849e-05
7 *223:8 *224:12 1.19692e-05
8 *221:12 *223:8 0.000141879
*RES
1 *1693:Y *223:8 39.9057 
2 *223:8 *223:10 15 
3 *223:10 *1695:A_N 23.6214 
4 *223:10 *1698:B 26.0036 
*END

*D_NET *224 0.000979462
*CONN
*I *1697:B I *D sky130_fd_sc_hd__xnor2_1
*I *1695:B I *D sky130_fd_sc_hd__and2b_1
*I *1694:Y O *D sky130_fd_sc_hd__nand2_1
*CAP
1 *1697:B 6.19132e-05
2 *1695:B 0
3 *1694:Y 5.56923e-05
4 *224:12 0.000337788
5 *224:6 0.000455394
6 *224:6 *1694:A 5.67058e-05
7 *1694:B *224:12 0
8 *221:12 *224:12 0
9 *223:8 *224:12 1.19692e-05
*RES
1 *1694:Y *224:6 24.0979 
2 *224:6 *224:12 36.1314 
3 *224:12 *1695:B 23 
4 *224:6 *1697:B 24.0979 
*END

*D_NET *225 0.00491756
*CONN
*I *1701:B I *D sky130_fd_sc_hd__xor2_1
*I *2116:A I *D sky130_fd_sc_hd__buf_8
*I *1702:C I *D sky130_fd_sc_hd__and3_1
*I *1699:Y O *D sky130_fd_sc_hd__a21boi_2
*CAP
1 *1701:B 4.49416e-05
2 *2116:A 0
3 *1702:C 0.000241494
4 *1699:Y 0.00109887
5 *225:23 0.000537988
6 *225:10 0.000842098
7 *225:8 0.00120643
8 *1701:B *411:14 6.2339e-05
9 *1701:B *497:10 1.24376e-05
10 *1702:C *411:16 0.0005155
11 *225:8 *411:14 0.000217374
12 *225:8 *497:10 3.34247e-05
13 *225:10 *411:14 1.22822e-05
14 *225:10 *411:16 5.50106e-05
15 *225:23 *412:10 0
16 *225:23 *412:256 0
17 *225:23 *432:98 0
18 *225:23 *497:10 1.86973e-05
19 *225:23 *498:10 0
20 *1699:A2 *225:8 1.32939e-05
21 *204:23 *225:8 5.37348e-06
*RES
1 *1699:Y *225:8 38.8879 
2 *225:8 *225:10 1.57429 
3 *225:10 *1702:C 28.6964 
4 *225:10 *225:23 39.3007 
5 *225:23 *2116:A 23 
6 *225:8 *1701:B 24.6157 
*END

*D_NET *226 0.000519934
*CONN
*I *1705:B I *D sky130_fd_sc_hd__xnor2_1
*I *1700:Y O *D sky130_fd_sc_hd__nor2_1
*CAP
1 *1705:B 4.13261e-05
2 *1700:Y 4.13261e-05
3 *1705:B *1700:B 0.000184527
4 *1705:B *1712:B 2.4754e-05
5 *1705:B *423:29 0.000228001
*RES
1 *1700:Y *1705:B 48.5271 
*END

*D_NET *227 0.00172316
*CONN
*I *1704:A I *D sky130_fd_sc_hd__nor2_1
*I *1707:B I *D sky130_fd_sc_hd__xor2_1
*I *1702:X O *D sky130_fd_sc_hd__and3_1
*CAP
1 *1704:A 0.000189615
2 *1707:B 0
3 *1702:X 0.000244088
4 *227:8 0.000433703
5 *1704:A *228:8 7.65883e-06
6 *1704:A *432:113 0.000380352
7 *1704:A *498:10 0.000203801
8 *227:8 *1995:CLK 3.14377e-05
9 *227:8 *228:8 0.000137153
10 *227:8 *432:98 0
11 *227:8 *498:10 9.53499e-05
*RES
1 *1702:X *227:8 43.075 
2 *227:8 *1707:B 38 
3 *227:8 *1704:A 44.0486 
*END

*D_NET *228 0.00179064
*CONN
*I *1704:B I *D sky130_fd_sc_hd__nor2_1
*I *1708:B I *D sky130_fd_sc_hd__xnor2_1
*I *1703:Y O *D sky130_fd_sc_hd__a21oi_1
*CAP
1 *1704:B 0.000147671
2 *1708:B 6.82319e-05
3 *1703:Y 0.00023414
4 *228:8 0.000450043
5 *1704:B *413:23 0
6 *1704:B *413:36 0
7 *1704:B *432:113 0.000216721
8 *1704:B *503:10 0.000141879
9 *1708:B *450:8 5.41288e-05
10 *1708:B *450:12 1.76557e-05
11 *228:8 *1702:B 4.07715e-05
12 *228:8 *1995:CLK 3.70094e-05
13 *228:8 *412:33 6.79006e-05
14 *228:8 *413:23 0
15 *228:8 *432:113 0.000169674
16 *1704:A *228:8 7.65883e-06
17 *227:8 *228:8 0.000137153
*RES
1 *1703:Y *228:8 44.1314 
2 *228:8 *1708:B 39.5743 
3 *228:8 *1704:B 41.5836 
*END

*D_NET *229 0.000348981
*CONN
*I *1713:B I *D sky130_fd_sc_hd__xnor2_1
*I *1706:X O *D sky130_fd_sc_hd__a31o_1
*CAP
1 *1713:B 2.7651e-05
2 *1706:X 2.7651e-05
3 *1713:B *1706:A1 0.000187129
4 *165:42 *1713:B 0.00010655
*RES
1 *1706:X *1713:B 48.0507 
*END

*D_NET *230 0.00451149
*CONN
*I *1758:D I *D sky130_fd_sc_hd__and4b_4
*I *1710:D I *D sky130_fd_sc_hd__nand4_4
*I *1776:D I *D sky130_fd_sc_hd__and4bb_4
*I *1767:C I *D sky130_fd_sc_hd__nand4b_4
*I *1709:X O *D sky130_fd_sc_hd__and2_2
*CAP
1 *1758:D 0
2 *1710:D 0
3 *1776:D 8.56503e-05
4 *1767:C 3.45092e-05
5 *1709:X 0.000130828
6 *230:51 0.000782638
7 *230:36 0.000872045
8 *230:25 0.000271072
9 *230:14 0.000261352
10 *1767:C *265:14 1.59094e-05
11 *1767:C *416:180 2.64616e-05
12 *1776:D *1776:B_N 5.3304e-05
13 *1776:D *1785:A 4.50413e-05
14 *1776:D *265:14 5.3304e-05
15 *1776:D *265:101 0.000129522
16 *1776:D *447:16 8.09334e-05
17 *230:14 *246:10 0.000133605
18 *230:14 *261:8 5.50049e-05
19 *230:14 *412:119 3.81486e-05
20 *230:14 *416:180 8.62783e-05
21 *230:25 *239:10 1.37349e-05
22 *230:25 *246:10 4.07715e-05
23 *230:25 *265:14 0.000161121
24 *230:25 *412:119 0.000206577
25 *230:36 *239:10 8.92841e-05
26 *230:36 *246:10 7.45278e-05
27 *230:36 *265:14 3.70187e-05
28 *230:51 *1758:B 5.00888e-05
29 *230:51 *1758:C 0.000138047
30 *230:51 *1813:D 0.000178517
31 *230:51 *239:10 9.03157e-05
32 *230:51 *246:10 9.63918e-05
33 *230:51 *270:10 2.93335e-05
34 *230:51 *411:126 9.8971e-06
35 *230:51 *447:10 0.000140259
*RES
1 *1709:X *230:14 41.2936 
2 *230:14 *1767:C 38.6214 
3 *230:14 *230:25 3.31429 
4 *230:25 *1776:D 41.0036 
5 *230:25 *230:36 2.61 
6 *230:36 *1710:D 38 
7 *230:36 *230:51 29.0857 
8 *230:51 *1758:D 23 
*END

*D_NET *231 0.0292645
*CONN
*I *1712:A I *D sky130_fd_sc_hd__and2_1
*I *1714:B I *D sky130_fd_sc_hd__xnor2_1
*I *1878:S I *D sky130_fd_sc_hd__mux2_1
*I *1880:S I *D sky130_fd_sc_hd__mux2_1
*I *1881:S I *D sky130_fd_sc_hd__mux2_1
*I *1882:S I *D sky130_fd_sc_hd__mux2_1
*I *1884:S I *D sky130_fd_sc_hd__mux2_1
*I *1883:S I *D sky130_fd_sc_hd__mux2_1
*I *1879:S I *D sky130_fd_sc_hd__mux2_1
*I *1877:S I *D sky130_fd_sc_hd__mux2_1
*I *1710:Y O *D sky130_fd_sc_hd__nand4_4
*CAP
1 *1712:A 0
2 *1714:B 0
3 *1878:S 0
4 *1880:S 0.000240482
5 *1881:S 0
6 *1882:S 7.52137e-05
7 *1884:S 0
8 *1883:S 0
9 *1879:S 0
10 *1877:S 0
11 *1710:Y 0
12 *231:159 0.000167067
13 *231:151 0.000732548
14 *231:131 0.000174932
15 *231:107 0.000326251
16 *231:94 0.000950641
17 *231:80 0.000834316
18 *231:65 0.000839999
19 *231:59 0.0017533
20 *231:55 0.00133118
21 *231:51 0.00266146
22 *231:45 0.0020876
23 *231:30 0.00165821
24 *231:24 0.00114966
25 *231:12 0.00122995
26 *231:4 0.00101091
27 *1880:S *409:160 0.000108682
28 *1880:S *410:57 0
29 *1880:S *454:28 0.000211599
30 *1882:S *456:86 4.79641e-05
31 *1882:S *456:92 6.17437e-06
32 *231:12 *1705:A 3.22879e-05
33 *231:12 *1715:B 4.83778e-05
34 *231:12 *265:101 0
35 *231:12 *423:10 0.000107548
36 *231:12 *423:12 0.000217562
37 *231:12 *423:14 7.91493e-05
38 *231:12 *477:23 0.000836169
39 *231:12 *501:10 0
40 *231:24 *1718:A0 4.5051e-05
41 *231:24 *1718:S0 5.3304e-05
42 *231:24 *1768:A1 0.000305431
43 *231:24 *1768:S 2.32101e-05
44 *231:24 *1938:CLK 9.41704e-05
45 *231:24 *235:12 9.41704e-05
46 *231:24 *311:10 0.000164373
47 *231:24 *407:234 0.000216712
48 *231:24 *409:52 0.000218943
49 *231:24 *451:177 1.61361e-05
50 *231:30 *311:10 0.000112818
51 *231:30 *451:177 0.000140288
52 *231:45 *1629:A3 0.000354634
53 *231:45 *1781:S 0.000423958
54 *231:45 *1877:A0 1.05235e-05
55 *231:45 *323:29 7.02666e-06
56 *231:45 *408:394 9.32308e-06
57 *231:45 *451:177 0.000182826
58 *231:45 *455:136 2.92911e-06
59 *231:51 *307:12 0.000140949
60 *231:51 *323:14 5.32702e-05
61 *231:51 *331:25 1.01436e-05
62 *231:51 *410:57 0
63 *231:51 *454:28 0.000174324
64 *231:55 *1934:CLK 3.34247e-05
65 *231:55 *1953:CLK 6.343e-05
66 *231:55 *334:25 9.52814e-06
67 *231:55 *436:69 0.000130341
68 *231:59 *436:58 5.3304e-05
69 *231:59 *436:69 8.43466e-05
70 *231:65 *1879:A1 0.000243247
71 *231:65 *263:55 0.00103734
72 *231:65 *321:12 6.7177e-06
73 *231:65 *453:109 4.18957e-05
74 *231:65 *457:31 0
75 *231:80 *1765:S 0.000154138
76 *231:80 *1944:CLK 1.01436e-05
77 *231:80 *263:55 0.000675699
78 *231:80 *266:61 8.82421e-05
79 *231:80 *325:12 0.000225265
80 *231:80 *408:484 0
81 *231:80 *436:52 0.000114092
82 *231:80 *436:58 0.000463729
83 *231:80 *457:18 0
84 *231:80 *457:29 0.000100262
85 *231:80 *457:31 0
86 *231:80 *457:138 5.50049e-05
87 *231:94 *1773:A0 0.000132172
88 *231:94 *308:12 9.35856e-05
89 *231:94 *316:14 0.000137788
90 *231:94 *323:14 5.61207e-05
91 *231:94 *324:8 0.000114083
92 *231:94 *332:12 0.000221184
93 *231:94 *409:166 3.84797e-05
94 *231:94 *409:172 0.00010757
95 *231:94 *409:174 0
96 *231:94 *455:102 0
97 *231:94 *455:104 0.000176704
98 *231:94 *455:110 5.11935e-06
99 *231:94 *455:145 0
100 *231:94 *456:92 0.000160727
101 *231:107 *331:25 0.000128583
102 *231:107 *410:57 0
103 *231:131 *266:19 0.000484291
104 *231:131 *270:89 0.000103019
105 *231:131 *319:23 0.00026916
106 *231:151 *1705:A 1.56665e-05
107 *231:151 *423:29 0.000139352
108 *231:151 *477:10 0.000269555
109 *231:151 *505:10 3.83778e-05
110 *231:159 *1712:B 5.41288e-05
111 *231:159 *1929:CLK 0.000182832
112 *231:159 *423:33 3.70094e-05
113 *231:159 *476:14 6.08751e-05
114 *1934:D *231:55 5.10613e-05
115 *1953:D *231:55 5.34647e-06
116 *47:8 *231:94 8.62783e-05
117 *49:8 *231:80 3.56537e-05
118 *93:8 *231:65 7.66188e-05
119 *154:8 *231:65 5.61414e-05
120 *164:28 *1880:S 2.93845e-05
121 *170:6 *231:45 4.75206e-05
122 *177:10 *231:65 0.000486246
123 *184:10 *231:80 0
*RES
1 *1710:Y *231:4 23 
2 *231:4 *231:12 43.7957 
3 *231:12 *231:24 45.1836 
4 *231:24 *231:30 4.47429 
5 *231:30 *1877:S 23 
6 *231:30 *231:45 38.2 
7 *231:45 *231:51 23.6793 
8 *231:51 *231:55 16.7164 
9 *231:55 *231:59 16.5743 
10 *231:59 *231:65 37.4336 
11 *231:65 *1879:S 23 
12 *231:59 *231:80 37.0814 
13 *231:80 *1883:S 23 
14 *231:55 *1884:S 23 
15 *231:51 *231:94 37.33 
16 *231:94 *1882:S 39.595 
17 *231:45 *231:107 1.90571 
18 *231:107 *1881:S 38 
19 *231:107 *1880:S 44.4007 
20 *231:24 *231:131 36.4836 
21 *231:131 *1878:S 23 
22 *231:12 *1714:B 23 
23 *231:4 *231:151 38.6379 
24 *231:151 *231:159 33.9564 
25 *231:159 *1712:A 23 
*END

*D_NET *232 0.00389611
*CONN
*I *1715:B I *D sky130_fd_sc_hd__xor2_1
*I *1712:B I *D sky130_fd_sc_hd__and2_1
*I *1711:X O *D sky130_fd_sc_hd__a41o_1
*CAP
1 *1715:B 0.000191304
2 *1712:B 0.00061601
3 *1711:X 0.000476453
4 *232:10 0.00128377
5 *1712:B *1700:B 0.000604916
6 *1712:B *1929:CLK 1.03955e-05
7 *1712:B *423:29 2.62931e-05
8 *1712:B *500:10 0.000180224
9 *1715:B *2002:CLK 0
10 *1715:B *265:101 0
11 *1715:B *423:14 0
12 *1715:B *450:176 1.22803e-05
13 *232:10 *1710:A 0
14 *232:10 *1711:A1 0
15 *232:10 *1711:A2 0.000115151
16 *232:10 *1711:B1 4.5051e-05
17 *232:10 *2002:CLK 0
18 *232:10 *246:10 0
19 *232:10 *411:153 0
20 *232:10 *411:175 0
21 *232:10 *411:203 0
22 *232:10 *414:8 5.56306e-05
23 *232:10 *450:176 5.45887e-05
24 *1705:B *1712:B 2.4754e-05
25 *1748:A *232:10 9.67842e-05
26 *165:29 *232:10 0
27 *231:12 *1715:B 4.83778e-05
28 *231:159 *1712:B 5.41288e-05
*RES
1 *1711:X *232:10 47.2386 
2 *232:10 *1712:B 49.2893 
3 *232:10 *1715:B 41.6664 
*END

*D_NET *233 0.00141857
*CONN
*I *1717:B I *D sky130_fd_sc_hd__or2_1
*I *1716:X O *D sky130_fd_sc_hd__mux4_1
*CAP
1 *1717:B 0
2 *1716:X 0.000291245
3 *233:10 0.000291245
4 *233:10 *1719:A2 3.92407e-05
5 *233:10 *270:10 0.000345817
6 *233:10 *407:248 0.000104325
7 *233:10 *412:182 0.000138727
8 *233:10 *450:161 2.45549e-06
9 *233:10 *452:32 0.000205512
*RES
1 *1716:X *233:10 46.5136 
2 *233:10 *1717:B 38 
*END

*D_NET *234 0.000588759
*CONN
*I *1723:A1 I *D sky130_fd_sc_hd__a22o_1
*I *1717:X O *D sky130_fd_sc_hd__or2_1
*CAP
1 *1723:A1 0
2 *1717:X 0.000141373
3 *234:10 0.000141373
4 *234:10 *1719:A2 5.12254e-05
5 *234:10 *236:8 0.000169665
6 *234:10 *264:8 8.51225e-05
*RES
1 *1717:X *234:10 41.3557 
2 *234:10 *1723:A1 38 
*END

*D_NET *235 0.0033635
*CONN
*I *1719:A2 I *D sky130_fd_sc_hd__o21a_1
*I *1718:X O *D sky130_fd_sc_hd__mux4_1
*CAP
1 *1719:A2 0.000468424
2 *1718:X 0.000617488
3 *235:12 0.00108591
4 *1719:A2 *407:234 5.94125e-05
5 *1719:A2 *407:248 0.000177038
6 *1719:A2 *409:52 2.64616e-05
7 *1719:A2 *409:63 2.02872e-05
8 *1719:A2 *410:30 5.50049e-05
9 *1719:A2 *452:32 0.000423298
10 *235:12 *1718:A2 7.02666e-06
11 *235:12 *1718:S0 5.94258e-05
12 *235:12 *327:25 8.55148e-06
13 *235:12 *408:384 0.000170538
14 *231:24 *235:12 9.41704e-05
15 *233:10 *1719:A2 3.92407e-05
16 *234:10 *1719:A2 5.12254e-05
*RES
1 *1718:X *235:12 46.7621 
2 *235:12 *1719:A2 48.6886 
*END

*D_NET *236 0.000366439
*CONN
*I *1723:A2 I *D sky130_fd_sc_hd__a22o_1
*I *1719:X O *D sky130_fd_sc_hd__o21a_1
*CAP
1 *1723:A2 0
2 *1719:X 5.45829e-05
3 *236:8 5.45829e-05
4 *236:8 *246:10 8.76088e-05
5 *234:10 *236:8 0.000169665
*RES
1 *1719:X *236:8 40.2579 
2 *236:8 *1723:A2 38 
*END

*D_NET *237 0.00296212
*CONN
*I *1722:A0 I *D sky130_fd_sc_hd__mux2_1
*I *1720:X O *D sky130_fd_sc_hd__mux4_1
*CAP
1 *1722:A0 0
2 *1720:X 0.0004634
3 *237:14 0.000670708
4 *237:8 0.00113411
5 *237:8 *1851:A1 3.21734e-05
6 *237:8 *343:27 1.6318e-05
7 *237:14 *1720:A0 0
8 *237:14 *1722:A1 5.50106e-05
9 *237:14 *1851:A1 3.31127e-05
10 *237:14 *1869:A1 0
11 *237:14 *272:25 0
12 *237:14 *277:92 0.000396518
13 *237:14 *335:10 0
14 *237:14 *351:10 4.15526e-05
15 *237:14 *407:546 2.33476e-05
16 *237:14 *430:14 0
17 *123:10 *237:8 9.58714e-05
*RES
1 *1720:X *237:8 43.8621 
2 *237:8 *237:14 29.8521 
3 *237:14 *1722:A0 23 
*END

*D_NET *238 0.000482222
*CONN
*I *1722:A1 I *D sky130_fd_sc_hd__mux2_1
*I *1721:X O *D sky130_fd_sc_hd__mux4_1
*CAP
1 *1722:A1 0.000139257
2 *1721:X 0.000139257
3 *1722:A1 *1722:S 0.000148698
4 *237:14 *1722:A1 5.50106e-05
*RES
1 *1721:X *1722:A1 49.0036 
*END

*D_NET *239 0.00908169
*CONN
*I *1723:B1 I *D sky130_fd_sc_hd__a22o_1
*I *1722:X O *D sky130_fd_sc_hd__mux2_1
*CAP
1 *1723:B1 0
2 *1722:X 0.000425849
3 *239:10 0.0017925
4 *239:8 0.00221835
5 *239:8 *1721:A0 0.000158488
6 *239:8 *1722:S 4.96717e-05
7 *239:10 *246:10 0
8 *239:10 *264:8 0.00080113
9 *239:10 *268:38 6.28591e-05
10 *239:10 *268:48 2.5415e-05
11 *239:10 *273:27 0
12 *239:10 *274:127 2.91142e-05
13 *239:10 *407:427 0.000118174
14 *239:10 *407:437 0.000241346
15 *239:10 *409:63 0.000145844
16 *239:10 *409:73 3.83778e-05
17 *239:10 *411:53 0.000218013
18 *239:10 *412:119 0.000398655
19 *239:10 *416:180 0.0004705
20 *239:10 *416:182 1.37349e-05
21 *239:10 *416:184 0.000458505
22 *239:10 *416:194 8.51329e-05
23 *239:10 *431:61 0.000246748
24 *239:10 *451:86 0.000379403
25 *239:10 *451:101 0.000272321
26 *239:10 *452:32 0.000124131
27 *156:10 *239:10 0.000114083
28 *230:25 *239:10 1.37349e-05
29 *230:36 *239:10 8.92841e-05
30 *230:51 *239:10 9.03157e-05
*RES
1 *1722:X *239:8 43.3857 
2 *239:8 *239:10 49.445 
3 *239:10 *1723:B1 38 
*END

*D_NET *240 0.00112623
*CONN
*I *1725:B I *D sky130_fd_sc_hd__or2_1
*I *1724:X O *D sky130_fd_sc_hd__mux4_1
*CAP
1 *1725:B 0
2 *1724:X 0.000395689
3 *240:10 0.000395689
4 *240:10 *1947:CLK 2.64616e-05
5 *240:10 *246:10 0
6 *240:10 *265:110 0
7 *1947:D *240:10 5.2426e-05
8 *60:8 *240:10 8.62876e-05
9 *163:114 *240:10 0.000169674
*RES
1 *1724:X *240:10 44.2143 
2 *240:10 *1725:B 38 
*END

*D_NET *241 0.000986868
*CONN
*I *1731:A1 I *D sky130_fd_sc_hd__a22o_1
*I *1725:X O *D sky130_fd_sc_hd__or2_1
*CAP
1 *1731:A1 0.000215607
2 *1725:X 8.89636e-05
3 *241:8 0.000304571
4 *1731:A1 *1731:A2 5.67058e-05
5 *1731:A1 *408:570 0.000270682
6 *241:8 *1685:B 6.7177e-06
7 *241:8 *408:574 4.08537e-05
8 *163:108 *241:8 2.76611e-06
*RES
1 *1725:X *241:8 39.5536 
2 *241:8 *1731:A1 42.9093 
*END

*D_NET *242 0.00286614
*CONN
*I *1727:A2 I *D sky130_fd_sc_hd__o21a_1
*I *1726:X O *D sky130_fd_sc_hd__mux4_1
*CAP
1 *1727:A2 0.000317727
2 *1726:X 0.000691539
3 *242:8 0.00100927
4 *1727:A2 *1726:A0 6.07826e-05
5 *1727:A2 *1727:B1 3.70187e-05
6 *1727:A2 *1913:CLK 1.22906e-05
7 *1727:A2 *392:10 8.90658e-05
8 *1727:A2 *408:16 6.16439e-05
9 *1727:A2 *408:30 0.00031842
10 *1727:A2 *417:87 1.22803e-05
11 *1727:A2 *417:91 4.67488e-05
12 *242:8 *1726:A0 6.17437e-06
13 *242:8 *288:12 0.00013652
14 *242:8 *408:30 6.12864e-05
15 *1979:D *1727:A2 5.37348e-06
16 *28:12 *1727:A2 0
*RES
1 *1726:X *242:8 46.7207 
2 *242:8 *1727:A2 45.4986 
*END

*D_NET *243 0.000784263
*CONN
*I *1731:A2 I *D sky130_fd_sc_hd__a22o_1
*I *1727:X O *D sky130_fd_sc_hd__o21a_1
*CAP
1 *1731:A2 4.26336e-05
2 *1727:X 0.000174024
3 *243:8 0.000216658
4 *243:8 *1727:B1 9.28842e-05
5 *243:8 *410:24 8.51329e-05
6 *1731:A1 *1731:A2 5.67058e-05
7 *28:12 *243:8 0.000116224
*RES
1 *1727:X *243:8 42.7229 
2 *243:8 *1731:A2 39.1186 
*END

*D_NET *244 0.000973383
*CONN
*I *1730:A0 I *D sky130_fd_sc_hd__mux2_1
*I *1728:X O *D sky130_fd_sc_hd__mux4_1
*CAP
1 *1730:A0 0
2 *1728:X 0.000328733
3 *244:8 0.000328733
4 *244:8 *245:10 0.0001389
5 *244:8 *409:98 0.000177018
6 *244:8 *416:180 0
7 *244:8 *416:184 0
*RES
1 *1728:X *244:8 45.54 
2 *244:8 *1730:A0 38 
*END

*D_NET *245 0.00176008
*CONN
*I *1730:A1 I *D sky130_fd_sc_hd__mux2_1
*I *1729:X O *D sky130_fd_sc_hd__mux4_1
*CAP
1 *1730:A1 0.000115342
2 *1729:X 0.000504515
3 *245:10 0.000619857
4 *1730:A1 *1841:A_N 7.44354e-05
5 *245:10 *408:134 0.000128466
6 *245:10 *416:180 4.08641e-05
7 *245:10 *416:182 2.96051e-05
8 *245:10 *416:184 8.16356e-05
9 *245:10 *431:61 2.64616e-05
10 *244:8 *245:10 0.0001389
*RES
1 *1729:X *245:10 46.4514 
2 *245:10 *1730:A1 39.5743 
*END

*D_NET *246 0.00920134
*CONN
*I *1731:B1 I *D sky130_fd_sc_hd__a22o_1
*I *1730:X O *D sky130_fd_sc_hd__mux2_1
*CAP
1 *1731:B1 0
2 *1730:X 8.39976e-05
3 *246:10 0.00192216
4 *246:8 0.00200615
5 *246:8 *1841:A_N 1.76557e-05
6 *246:8 *412:62 5.3304e-05
7 *246:10 *1777:A0 0.000128583
8 *246:10 *264:8 0
9 *246:10 *265:14 0.000185755
10 *246:10 *265:101 0.000357537
11 *246:10 *265:110 0.000342296
12 *246:10 *303:10 0.000163352
13 *246:10 *409:90 0.000244228
14 *246:10 *410:24 3.70187e-05
15 *246:10 *410:30 0.00182266
16 *246:10 *411:64 0.000134687
17 *246:10 *411:153 0.000181034
18 *246:10 *412:54 0.000192087
19 *246:10 *412:62 0.000188926
20 *246:10 *412:80 0.000213551
21 *246:10 *412:91 0.000188926
22 *246:10 *412:106 0.000241355
23 *246:10 *416:180 1.89075e-05
24 *246:10 *451:183 4.42688e-05
25 *28:12 *246:10 0
26 *230:14 *246:10 0.000133605
27 *230:25 *246:10 4.07715e-05
28 *230:36 *246:10 7.45278e-05
29 *230:51 *246:10 9.63918e-05
30 *232:10 *246:10 0
31 *236:8 *246:10 8.76088e-05
32 *239:10 *246:10 0
33 *240:10 *246:10 0
*RES
1 *1730:X *246:8 39.0979 
2 *246:8 *246:10 55.0793 
3 *246:10 *1731:B1 38 
*END

*D_NET *247 0.00165122
*CONN
*I *1733:B I *D sky130_fd_sc_hd__or2_1
*I *1732:X O *D sky130_fd_sc_hd__mux4_1
*CAP
1 *1733:B 0.000478793
2 *1732:X 4.62388e-05
3 *247:8 0.000525032
4 *1733:B *1775:A1 0.00010018
5 *1733:B *2059:CLK 9.67842e-05
6 *247:8 *270:47 5.56203e-05
7 *247:8 *433:122 0.000116314
8 *2059:D *1733:B 0.000232254
*RES
1 *1732:X *247:8 39.5536 
2 *247:8 *1733:B 46.7207 
*END

*D_NET *248 0.00145799
*CONN
*I *1739:A1 I *D sky130_fd_sc_hd__a22o_1
*I *1733:X O *D sky130_fd_sc_hd__or2_1
*CAP
1 *1739:A1 0.000162794
2 *1733:X 8.19534e-05
3 *248:8 0.000244747
4 *1739:A1 *1739:B1 5.3304e-05
5 *1739:A1 *1779:A0 0.0002263
6 *1739:A1 *1779:A1 1.5769e-05
7 *1739:A1 *265:69 2.3191e-05
8 *1739:A1 *270:30 0.000566295
9 *248:8 *263:55 0
10 *248:8 *436:75 5.21127e-05
11 *1739:B2 *1739:A1 3.15261e-05
*RES
1 *1733:X *248:8 39.5536 
2 *248:8 *1739:A1 44.3386 
*END

*D_NET *249 0.00125588
*CONN
*I *1735:A2 I *D sky130_fd_sc_hd__o21a_1
*I *1734:X O *D sky130_fd_sc_hd__mux4_1
*CAP
1 *1735:A2 0
2 *1734:X 0.000425049
3 *249:10 0.000425049
4 *249:10 *1638:A 7.53384e-06
5 *249:10 *1943:CLK 7.33449e-05
6 *249:10 *409:172 0.000128056
7 *249:10 *434:72 5.26204e-05
8 *177:18 *249:10 0.000144231
*RES
1 *1734:X *249:10 45.975 
2 *249:10 *1735:A2 38 
*END

*D_NET *250 0.000297313
*CONN
*I *1739:A2 I *D sky130_fd_sc_hd__a22o_1
*I *1735:X O *D sky130_fd_sc_hd__o21a_1
*CAP
1 *1739:A2 4.05375e-05
2 *1735:X 4.05375e-05
3 *1739:A2 *270:30 0.000140259
4 *1739:B2 *1739:A2 7.59794e-05
*RES
1 *1735:X *1739:A2 47.5743 
*END

*D_NET *251 0.00257675
*CONN
*I *1738:A0 I *D sky130_fd_sc_hd__mux2_1
*I *1736:X O *D sky130_fd_sc_hd__mux4_1
*CAP
1 *1738:A0 0
2 *1736:X 1.56637e-05
3 *251:14 0.000646666
4 *251:8 0.00066233
5 *251:8 *1736:A2 5.67058e-05
6 *251:8 *353:25 1.94693e-05
7 *251:14 *1738:A1 0.000185434
8 *251:14 *1888:A0 4.73585e-05
9 *251:14 *1974:CLK 0.000228909
10 *251:14 *275:63 4.6318e-06
11 *251:14 *278:47 0.00012477
12 *251:14 *419:12 0.000167452
13 *251:14 *419:100 0.000223043
14 *251:14 *419:113 0.000194318
15 *119:10 *251:14 0
16 *141:8 *251:14 0
*RES
1 *1736:X *251:8 38.6214 
2 *251:8 *251:14 31.4057 
3 *251:14 *1738:A0 23 
*END

*D_NET *252 0.000988834
*CONN
*I *1738:A1 I *D sky130_fd_sc_hd__mux2_1
*I *1737:X O *D sky130_fd_sc_hd__mux4_1
*CAP
1 *1738:A1 0.000248272
2 *1737:X 3.5598e-05
3 *252:8 0.00028387
4 *1738:A1 *1974:CLK 1.41129e-05
5 *1738:A1 *2005:CLK 4.67488e-05
6 *252:8 *278:47 8.62783e-05
7 *133:10 *252:8 8.85189e-05
8 *251:14 *1738:A1 0.000185434
*RES
1 *1737:X *252:8 39.2014 
2 *252:8 *1738:A1 41.48 
*END

*D_NET *253 0.0104088
*CONN
*I *1739:B1 I *D sky130_fd_sc_hd__a22o_1
*I *1738:X O *D sky130_fd_sc_hd__mux2_1
*CAP
1 *1739:B1 2.77218e-05
2 *1738:X 0.000400344
3 *253:10 0.00205832
4 *253:8 0.00243094
5 *253:8 *1738:S 1.03836e-05
6 *253:8 *1974:CLK 3.22879e-05
7 *253:8 *409:192 0.00048285
8 *253:10 *1649:S1 2.22183e-05
9 *253:10 *1734:S1 5.36457e-05
10 *253:10 *2050:CLK 0
11 *253:10 *2057:CLK 0.000219882
12 *253:10 *272:99 0.00106762
13 *253:10 *272:109 0.000691798
14 *253:10 *277:60 0
15 *253:10 *379:8 8.67053e-05
16 *253:10 *387:12 0.000138727
17 *253:10 *408:249 0.000320082
18 *253:10 *408:257 6.10551e-06
19 *253:10 *408:402 9.67823e-05
20 *253:10 *416:43 0
21 *253:10 *428:66 0
22 *253:10 *428:82 0
23 *253:10 *434:12 0
24 *253:10 *434:23 0.000216721
25 *253:10 *436:75 0
26 *253:10 *455:73 0.000136486
27 *1739:A1 *1739:B1 5.3304e-05
28 *1739:B2 *1739:B1 2.64616e-05
29 *105:10 *253:10 5.26101e-05
30 *189:14 *253:10 0
31 *190:12 *253:10 0.00177679
*RES
1 *1738:X *253:8 44.3386 
2 *253:8 *253:10 54.7271 
3 *253:10 *1739:B1 38.6214 
*END

*D_NET *254 0.000843243
*CONN
*I *1741:B I *D sky130_fd_sc_hd__or2_1
*I *1740:X O *D sky130_fd_sc_hd__mux4_1
*CAP
1 *1741:B 0
2 *1740:X 0.000237122
3 *254:8 0.000237122
4 *254:8 *408:555 0
5 *254:8 *424:71 0
6 *31:14 *254:8 0.000369
*RES
1 *1740:X *254:8 43.075 
2 *254:8 *1741:B 38 
*END

*D_NET *255 0.00155041
*CONN
*I *1747:A1 I *D sky130_fd_sc_hd__a22o_1
*I *1741:X O *D sky130_fd_sc_hd__or2_1
*CAP
1 *1747:A1 0
2 *1741:X 0.000470184
3 *255:10 0.000470184
4 *255:10 *267:71 0.000133316
5 *255:10 *409:148 0.000476726
6 *1747:B2 *255:10 0
*RES
1 *1741:X *255:10 45.2914 
2 *255:10 *1747:A1 38 
*END

*D_NET *256 0.000522959
*CONN
*I *1743:A2 I *D sky130_fd_sc_hd__o21a_1
*I *1742:X O *D sky130_fd_sc_hd__mux4_1
*CAP
1 *1743:A2 1.80182e-05
2 *1742:X 8.0529e-05
3 *256:8 9.85472e-05
4 *1743:A2 *410:43 2.93845e-05
5 *1743:A2 *425:26 5.50106e-05
6 *256:8 *267:71 0.000163352
7 *163:20 *256:8 7.81176e-05
*RES
1 *1742:X *256:8 40.2579 
2 *256:8 *1743:A2 38.6214 
*END

*D_NET *257 0.000597142
*CONN
*I *1747:A2 I *D sky130_fd_sc_hd__a22o_1
*I *1743:X O *D sky130_fd_sc_hd__o21a_1
*CAP
1 *1747:A2 2.32701e-05
2 *1743:X 6.6976e-05
3 *257:8 9.02461e-05
4 *1747:A2 *1747:B1 5.3304e-05
5 *1747:A2 *417:12 5.3304e-05
6 *257:8 *267:71 0.000166513
7 *29:12 *257:8 0.000124169
8 *29:18 *257:8 1.93593e-05
*RES
1 *1743:X *257:8 40.2579 
2 *257:8 *1747:A2 38.6214 
*END

*D_NET *258 0.00206615
*CONN
*I *1746:A0 I *D sky130_fd_sc_hd__mux2_1
*I *1744:X O *D sky130_fd_sc_hd__mux4_1
*CAP
1 *1746:A0 0
2 *1744:X 0.000652316
3 *258:10 0.000652316
4 *258:10 *1744:A3 0.000235857
5 *258:10 *259:12 0.000299178
6 *258:10 *272:74 0.000139346
7 *258:10 *277:14 1.01436e-05
8 *142:10 *258:10 7.69935e-05
*RES
1 *1744:X *258:10 49.31 
2 *258:10 *1746:A0 38 
*END

*D_NET *259 0.00321152
*CONN
*I *1746:A1 I *D sky130_fd_sc_hd__mux2_1
*I *1745:X O *D sky130_fd_sc_hd__mux4_1
*CAP
1 *1746:A1 0
2 *1745:X 0.000224814
3 *259:12 0.000561075
4 *259:8 0.000785889
5 *259:8 *1745:S1 2.93747e-05
6 *259:8 *269:71 2.45549e-06
7 *259:8 *407:281 2.34039e-05
8 *259:12 *1744:S0 0.000789397
9 *259:12 *1872:A1 0
10 *259:12 *272:74 0
11 *259:12 *277:14 0.00040174
12 *259:12 *407:285 1.01436e-05
13 *259:12 *408:239 8.4047e-05
14 *259:12 *431:23 0
15 *84:10 *259:12 0
16 *183:10 *259:12 0
17 *258:10 *259:12 0.000299178
*RES
1 *1745:X *259:8 41.0036 
2 *259:8 *259:12 30.2871 
3 *259:12 *1746:A1 23 
*END

*D_NET *260 0.00762501
*CONN
*I *1747:B1 I *D sky130_fd_sc_hd__a22o_1
*I *1746:X O *D sky130_fd_sc_hd__mux2_1
*CAP
1 *1747:B1 0.000166788
2 *1746:X 4.00017e-05
3 *260:10 0.0020444
4 *260:8 0.00191761
5 *1747:B1 *417:12 0.000108826
6 *260:8 *409:73 3.22879e-05
7 *260:10 *262:75 0.000111852
8 *260:10 *265:34 0
9 *260:10 *267:56 0
10 *260:10 *267:71 0
11 *260:10 *287:12 0.000137995
12 *260:10 *307:27 8.4047e-05
13 *260:10 *314:8 0.000422369
14 *260:10 *417:16 0.00115952
15 *260:10 *422:26 0
16 *260:10 *422:43 0
17 *260:10 *424:25 0.000182863
18 *260:10 *424:29 0.000427743
19 *1747:A2 *1747:B1 5.3304e-05
20 *29:12 *260:10 0.000467979
21 *29:18 *260:10 2.24608e-05
22 *30:8 *1747:B1 9.67842e-05
23 *30:18 *260:10 3.70187e-05
24 *35:8 *260:10 0
25 *163:32 *260:10 0.000111158
26 *183:10 *260:10 0
*RES
1 *1746:X *260:8 38.6214 
2 *260:8 *260:10 46.98 
3 *260:10 *1747:B1 41.5007 
*END

*D_NET *261 0.00500708
*CONN
*I *1749:C I *D sky130_fd_sc_hd__nand4b_4
*I *1813:D I *D sky130_fd_sc_hd__and4bb_4
*I *1785:D I *D sky130_fd_sc_hd__nand4_4
*I *1794:D I *D sky130_fd_sc_hd__and4b_4
*I *1748:Y O *D sky130_fd_sc_hd__nor2_2
*CAP
1 *1749:C 2.34823e-05
2 *1813:D 0.000276588
3 *1785:D 0
4 *1794:D 0.000179715
5 *1748:Y 0.000623037
6 *261:16 0.000179715
7 *261:14 0.000542249
8 *261:8 0.00091218
9 *1794:D *1794:B 0.000261951
10 *1794:D *1794:C 2.18506e-05
11 *1794:D *295:8 7.47667e-05
12 *1794:D *447:16 5.79715e-05
13 *1813:D *1758:B 2.02872e-05
14 *1813:D *1758:C 0.000137651
15 *1813:D *408:90 0.000192087
16 *1813:D *411:111 0.000276579
17 *1813:D *411:126 6.07611e-06
18 *1813:D *450:131 2.76611e-06
19 *1813:D *450:140 1.34354e-05
20 *1813:D *450:196 4.45924e-05
21 *261:8 *1709:A 5.50049e-05
22 *261:8 *1709:B 4.94192e-05
23 *261:8 *1749:A_N 5.3304e-05
24 *261:8 *1749:B 5.50106e-05
25 *261:8 *262:6 1.14876e-05
26 *261:8 *262:67 5.50152e-05
27 *261:8 *409:90 4.83592e-05
28 *261:8 *412:106 9.41704e-05
29 *261:8 *413:80 5.37348e-06
30 *261:14 *262:67 3.52383e-05
31 *261:14 *411:111 0.000193396
32 *261:14 *450:131 5.40762e-05
33 *261:14 *451:111 0.000216721
34 *230:14 *261:8 5.50049e-05
35 *230:51 *1813:D 0.000178517
*RES
1 *1748:Y *261:8 33.6471 
2 *261:8 *261:14 21.525 
3 *261:14 *261:16 15 
4 *261:16 *1794:D 27.495 
5 *261:16 *1785:D 23 
6 *261:14 *1813:D 45.975 
7 *261:8 *1749:C 23.4971 
*END

*D_NET *262 0.0386104
*CONN
*I *1750:S I *D sky130_fd_sc_hd__mux2_1
*I *1757:S I *D sky130_fd_sc_hd__mux2_1
*I *1754:S I *D sky130_fd_sc_hd__mux2_1
*I *1752:S I *D sky130_fd_sc_hd__mux2_1
*I *1755:S I *D sky130_fd_sc_hd__mux2_1
*I *1751:S I *D sky130_fd_sc_hd__mux2_1
*I *1756:S I *D sky130_fd_sc_hd__mux2_1
*I *1753:S I *D sky130_fd_sc_hd__mux2_1
*I *1749:Y O *D sky130_fd_sc_hd__nand4b_4
*CAP
1 *1750:S 2.34823e-05
2 *1757:S 0
3 *1754:S 0.000149092
4 *1752:S 0.000246943
5 *1755:S 0.000259302
6 *1751:S 0
7 *1756:S 0.000531476
8 *1753:S 0
9 *1749:Y 4.18993e-05
10 *262:130 0.000714753
11 *262:115 0.00200141
12 *262:92 0.00206469
13 *262:81 0.00385885
14 *262:75 0.00351334
15 *262:67 0.0011647
16 *262:51 0.000978387
17 *262:36 0.0019885
18 *262:28 0.00157379
19 *262:22 0.00516926
20 *262:6 0.00572619
21 *1752:S *453:131 0.000495435
22 *1752:S *453:133 4.93812e-05
23 *1754:S *1818:A0 0.000319905
24 *1754:S *455:169 2.32004e-05
25 *1755:S *1755:A1 0.000100061
26 *1755:S *456:120 4.6595e-05
27 *1756:S *1756:A1 3.71251e-05
28 *1756:S *402:10 3.71251e-05
29 *262:22 *266:19 0.00016116
30 *262:22 *407:234 0.00011093
31 *262:22 *408:49 0.000146226
32 *262:22 *408:111 1.27424e-05
33 *262:22 *409:63 0.000133556
34 *262:22 *452:16 0.000138621
35 *262:22 *452:32 0.000208472
36 *262:28 *2126:A 2.47015e-05
37 *262:36 *1919:CLK 4.96717e-05
38 *262:36 *270:113 0.000487147
39 *262:36 *449:8 0.000747093
40 *262:51 *1753:A0 9.84851e-05
41 *262:51 *1753:A1 0.00044107
42 *262:51 *270:113 4.19743e-05
43 *262:51 *270:127 0.0002246
44 *262:51 *298:12 6.51763e-05
45 *262:51 *402:10 0
46 *262:67 *1749:B 2.93845e-05
47 *262:81 *1875:A0 0.000260681
48 *262:81 *277:60 0.000128401
49 *262:81 *409:73 0.00010655
50 *262:92 *408:443 0
51 *262:92 *433:10 0.000622627
52 *262:92 *433:14 0.000161748
53 *262:115 *1818:A0 0
54 *262:115 *291:29 0.000168394
55 *262:115 *299:27 6.48142e-05
56 *262:115 *407:89 0.000652847
57 *262:115 *407:128 0.000136486
58 *262:115 *408:443 7.68285e-05
59 *262:115 *408:469 2.3508e-05
60 *262:115 *420:105 0
61 *262:115 *433:10 1.00084e-05
62 *262:115 *433:76 0.00020247
63 *262:115 *433:122 0.00014129
64 *262:130 *407:128 0.000796649
65 *262:130 *420:131 0
66 *262:130 *436:36 0.000100061
67 *2066:D *262:81 4.87505e-05
68 *34:14 *262:36 0.000109077
69 *37:8 *262:115 0.000163757
70 *38:8 *262:51 0
71 *95:10 *1754:S 7.63261e-05
72 *95:10 *262:115 0.000109641
73 *183:10 *262:75 0
74 *260:10 *262:75 0.000111852
75 *261:8 *262:6 1.14876e-05
76 *261:8 *262:67 5.50152e-05
77 *261:14 *262:67 3.52383e-05
*RES
1 *1749:Y *262:6 23.6214 
2 *262:6 *262:22 49.8565 
3 *262:22 *262:28 23.3211 
4 *262:28 *262:36 26.2864 
5 *262:36 *1753:S 23 
6 *262:36 *262:51 41.2271 
7 *262:51 *1756:S 33.15 
8 *262:28 *1751:S 23 
9 *262:6 *262:67 9.21786 
10 *262:67 *262:75 39.7979 
11 *262:75 *262:81 39.73 
12 *262:81 *1755:S 27.4329 
13 *262:81 *262:92 28.8786 
14 *262:92 *1752:S 44.3386 
15 *262:92 *262:115 26.8871 
16 *262:115 *1754:S 41.9564 
17 *262:115 *262:130 30.6807 
18 *262:130 *1757:S 23 
19 *262:67 *1750:S 23.4971 
*END

*D_NET *263 0.0234234
*CONN
*I *1760:S I *D sky130_fd_sc_hd__mux2_1
*I *1762:S I *D sky130_fd_sc_hd__mux2_1
*I *1759:S I *D sky130_fd_sc_hd__mux2_1
*I *1763:S I *D sky130_fd_sc_hd__mux2_1
*I *1764:S I *D sky130_fd_sc_hd__mux2_1
*I *1765:S I *D sky130_fd_sc_hd__mux2_1
*I *1766:S I *D sky130_fd_sc_hd__mux2_1
*I *1761:S I *D sky130_fd_sc_hd__mux2_1
*I *1758:X O *D sky130_fd_sc_hd__and4b_4
*CAP
1 *1760:S 0
2 *1762:S 0.000838178
3 *1759:S 0
4 *1763:S 0
5 *1764:S 0
6 *1765:S 0.000180108
7 *1766:S 0
8 *1761:S 8.20761e-05
9 *1758:X 6.35652e-05
10 *263:120 0.00149821
11 *263:110 0.0012772
12 *263:95 0.0014632
13 *263:86 0.000341033
14 *263:55 0.00088626
15 *263:44 0.00134889
16 *263:36 0.000682802
17 *263:32 0.00082207
18 *263:26 0.00131418
19 *263:6 0.00186489
20 *1761:S *267:32 0.000168975
21 *1761:S *321:12 0.000312348
22 *1762:S *264:95 0.000126667
23 *1762:S *410:49 0.000314953
24 *1765:S *1765:A1 5.50106e-05
25 *1765:S *407:139 0
26 *1765:S *455:160 2.4754e-05
27 *263:6 *411:126 1.94812e-05
28 *263:6 *447:10 6.9805e-05
29 *263:26 *1639:S0 0.000114796
30 *263:26 *1962:CLK 1.83716e-05
31 *263:26 *267:14 0.000128756
32 *263:26 *267:26 0.000173934
33 *263:26 *422:26 8.62876e-05
34 *263:26 *447:10 7.53384e-06
35 *263:32 *1639:S0 0.000267501
36 *263:32 *267:32 0.000139352
37 *263:32 *324:31 2.88036e-05
38 *263:36 *267:32 0.000264559
39 *263:36 *324:31 7.6881e-05
40 *263:44 *1764:A0 0.000137651
41 *263:44 *267:32 0.000462784
42 *263:44 *321:12 8.52481e-05
43 *263:44 *324:31 1.24376e-05
44 *263:44 *434:23 0.000185428
45 *263:44 *456:108 0.000897115
46 *263:55 *1775:A1 0.000221162
47 *263:55 *1779:A0 9.60666e-05
48 *263:55 *318:10 7.80251e-05
49 *263:55 *321:12 0.000174417
50 *263:55 *407:139 0
51 *263:55 *436:69 0
52 *263:86 *454:28 0.000810871
53 *263:86 *455:102 0.000149454
54 *263:86 *455:104 0.000214598
55 *263:86 *455:145 0.000104927
56 *263:95 *1716:A0 0
57 *263:95 *1759:A1 0
58 *263:95 *1814:A0 0
59 *263:95 *267:10 3.33082e-05
60 *263:95 *267:56 0
61 *263:95 *267:71 0
62 *263:95 *411:134 2.77188e-05
63 *263:95 *422:18 0.000406279
64 *263:95 *451:158 0
65 *263:95 *451:169 0
66 *263:110 *1759:A1 0
67 *263:110 *312:14 0
68 *263:110 *320:6 5.83407e-05
69 *263:110 *320:21 1.76557e-05
70 *263:110 *407:43 0.000226295
71 *263:110 *416:136 4.73689e-05
72 *263:110 *452:150 5.50106e-05
73 *263:110 *452:156 0
74 *263:110 *454:147 3.70187e-05
75 *263:120 *409:133 0.000268074
76 *263:120 *425:12 0
77 *263:120 *425:26 0.000395901
78 *263:120 *425:75 0
79 *263:120 *452:156 0.000443562
80 *1731:B2 *263:120 4.9662e-05
81 *1940:D *263:44 0.000222729
82 *1962:D *263:26 4.48555e-05
83 *56:8 *263:86 0.000110922
84 *91:10 *263:95 0
85 *147:8 *263:95 3.5664e-05
86 *148:8 *263:110 0
87 *148:8 *263:120 6.00172e-05
88 *163:16 *263:110 0
89 *163:16 *263:120 4.5051e-05
90 *163:22 *263:95 0
91 *163:22 *263:110 0
92 *163:32 *263:95 0
93 *164:8 *263:120 7.01251e-05
94 *171:8 *263:95 4.83778e-05
95 *171:8 *263:110 6.21538e-05
96 *179:10 *263:26 9.84794e-05
97 *231:65 *263:55 0.00103734
98 *231:80 *1765:S 0.000154138
99 *231:80 *263:55 0.000675699
100 *248:8 *263:55 0
*RES
1 *1758:X *263:6 24.5743 
2 *263:6 *263:26 46.0121 
3 *263:26 *263:32 6.98071 
4 *263:32 *263:36 3.50071 
5 *263:36 *263:44 17.4829 
6 *263:44 *1761:S 26.48 
7 *263:44 *263:55 37.6821 
8 *263:55 *1766:S 38 
9 *263:55 *1765:S 41.8529 
10 *263:36 *1764:S 23 
11 *263:32 *263:86 41.0614 
12 *263:86 *1763:S 23 
13 *263:6 *263:95 32.0479 
14 *263:95 *1759:S 38 
15 *263:95 *263:110 27.5736 
16 *263:110 *263:120 45.3493 
17 *263:120 *1762:S 35.5736 
18 *263:110 *1760:S 23 
*END

*D_NET *264 0.0252311
*CONN
*I *1769:S I *D sky130_fd_sc_hd__mux2_1
*I *1768:S I *D sky130_fd_sc_hd__mux2_1
*I *1774:S I *D sky130_fd_sc_hd__mux2_1
*I *1771:S I *D sky130_fd_sc_hd__mux2_1
*I *1772:S I *D sky130_fd_sc_hd__mux2_1
*I *1773:S I *D sky130_fd_sc_hd__mux2_1
*I *1775:S I *D sky130_fd_sc_hd__mux2_1
*I *1770:S I *D sky130_fd_sc_hd__mux2_1
*I *1767:Y O *D sky130_fd_sc_hd__nand4b_4
*CAP
1 *1769:S 0
2 *1768:S 0.000305505
3 *1774:S 0
4 *1771:S 0
5 *1772:S 2.67835e-05
6 *1773:S 0
7 *1775:S 0.000322483
8 *1770:S 0.000470597
9 *1767:Y 0
10 *264:123 0.0004919
11 *264:102 0.000939928
12 *264:95 0.00141014
13 *264:68 0.00211981
14 *264:30 0.00159364
15 *264:26 0.00119019
16 *264:20 0.000654599
17 *264:16 0.00258273
18 *264:8 0.00222015
19 *264:6 0.000442752
20 *1768:S *1718:A0 0.00026025
21 *1768:S *1768:A1 5.13142e-05
22 *1770:S *2057:CLK 0
23 *1770:S *321:29 0.000192087
24 *1770:S *408:402 7.75329e-06
25 *1770:S *434:12 0.00040943
26 *1770:S *434:23 0
27 *1770:S *436:75 0.000153222
28 *1772:S *1772:A1 1.83667e-05
29 *1772:S *410:57 6.02277e-06
30 *1775:S *1775:A1 5.67058e-05
31 *1775:S *408:402 0.000127896
32 *1775:S *409:237 2.18409e-05
33 *1775:S *436:69 2.5415e-05
34 *1775:S *436:75 0.00010247
35 *264:8 *409:63 0.00109203
36 *264:8 *410:30 0
37 *264:8 *452:32 4.85126e-05
38 *264:16 *416:113 0.000424221
39 *264:16 *422:12 0.000157322
40 *264:20 *1772:A1 9.67842e-05
41 *264:20 *455:117 0.000139357
42 *264:20 *455:136 0.000141954
43 *264:26 *410:57 4.55681e-05
44 *264:26 *454:28 0
45 *264:30 *1773:A0 0.000259087
46 *264:30 *408:421 1.21972e-05
47 *264:30 *434:12 9.67842e-05
48 *264:30 *434:50 0.000354122
49 *264:30 *434:59 9.58714e-05
50 *264:68 *314:35 3.86278e-05
51 *264:68 *417:16 0
52 *264:68 *424:14 9.70859e-05
53 *264:68 *424:50 2.7636e-05
54 *264:68 *454:141 3.93338e-05
55 *264:95 *1783:A1 5.29672e-05
56 *264:95 *314:35 1.05887e-05
57 *264:95 *330:29 0.00016986
58 *264:95 *407:51 0.00024222
59 *264:95 *407:159 2.09226e-05
60 *264:95 *410:49 0.000526324
61 *264:95 *424:65 4.48628e-05
62 *264:102 *311:10 6.16439e-05
63 *264:102 *452:32 0.000158536
64 *264:123 *1769:A0 5.50049e-05
65 *264:123 *311:10 0.000111852
66 *264:123 *407:12 0.000136738
67 *264:123 *408:78 0.000435933
68 *264:123 *410:30 0
69 *264:123 *452:32 0.000174958
70 *1762:S *264:95 0.000126667
71 *1930:D *264:16 0.000143599
72 *1946:D *264:16 0.000184471
73 *31:14 *264:68 3.53743e-05
74 *31:14 *264:95 4.63353e-05
75 *51:8 *264:123 6.7177e-06
76 *55:10 *264:20 1.39431e-05
77 *59:8 *264:102 0.000116331
78 *63:8 *264:68 3.21223e-05
79 *164:34 *264:95 0.000692392
80 *164:71 *264:68 0.00114854
81 *176:16 *1772:S 2.96154e-05
82 *176:16 *264:26 0.000172656
83 *231:24 *1768:S 2.32101e-05
84 *234:10 *264:8 8.51225e-05
85 *239:10 *264:8 0.00080113
86 *246:10 *264:8 0
*RES
1 *1767:Y *264:6 38 
2 *264:6 *264:8 15.9914 
3 *264:8 *264:16 37.2264 
4 *264:16 *264:20 19.9093 
5 *264:20 *264:26 22.6021 
6 *264:26 *264:30 30.3907 
7 *264:30 *1770:S 49.4136 
8 *264:30 *1775:S 44.8771 
9 *264:26 *1773:S 23 
10 *264:20 *1772:S 38.8493 
11 *264:16 *264:68 32.7521 
12 *264:68 *1771:S 38 
13 *264:68 *264:95 41.9286 
14 *264:95 *1774:S 23 
15 *264:8 *264:102 4.37071 
16 *264:102 *1768:S 43.5721 
17 *264:102 *264:123 27.2836 
18 *264:123 *1769:S 23 
*END

*D_NET *265 0.0255599
*CONN
*I *1780:S I *D sky130_fd_sc_hd__mux2_1
*I *1778:S I *D sky130_fd_sc_hd__mux2_1
*I *1777:S I *D sky130_fd_sc_hd__mux2_1
*I *1782:S I *D sky130_fd_sc_hd__mux2_1
*I *1783:S I *D sky130_fd_sc_hd__mux2_1
*I *1784:S I *D sky130_fd_sc_hd__mux2_1
*I *1779:S I *D sky130_fd_sc_hd__mux2_1
*I *1781:S I *D sky130_fd_sc_hd__mux2_1
*I *1776:X O *D sky130_fd_sc_hd__and4bb_4
*CAP
1 *1780:S 0
2 *1778:S 0.000103312
3 *1777:S 0
4 *1782:S 0
5 *1783:S 0
6 *1784:S 0
7 *1779:S 0
8 *1781:S 0.000195757
9 *1776:X 0
10 *265:131 0.0015135
11 *265:110 0.00220708
12 *265:101 0.00155599
13 *265:85 0.000634542
14 *265:69 0.000906622
15 *265:57 0.00102035
16 *265:55 0.00171023
17 *265:34 0.00194851
18 *265:26 0.00175264
19 *265:14 0.00192896
20 *265:4 0.00193284
21 *1778:S *1778:A1 9.5877e-05
22 *1778:S *304:12 2.18409e-05
23 *1778:S *304:20 2.4754e-05
24 *1781:S *455:136 0.000358733
25 *265:14 *1767:B 1.97656e-05
26 *265:14 *1785:A 5.3304e-05
27 *265:14 *1786:S 6.53382e-05
28 *265:14 *412:133 1.40958e-05
29 *265:14 *416:180 2.66184e-05
30 *265:14 *451:115 0.000305431
31 *265:26 *1782:A0 0
32 *265:26 *1786:A1 8.4047e-05
33 *265:26 *1951:CLK 7.88926e-05
34 *265:26 *1954:CLK 1.9024e-05
35 *265:26 *295:8 0.000435849
36 *265:26 *451:141 8.62783e-05
37 *265:34 *1629:S1 2.84912e-05
38 *265:34 *1962:CLK 2.24608e-05
39 *265:34 *410:72 0.000246757
40 *265:34 *417:16 0
41 *265:34 *422:26 5.13205e-05
42 *265:34 *422:43 4.04787e-05
43 *265:34 *455:136 0.000429602
44 *265:55 *1881:A0 5.12254e-05
45 *265:55 *315:10 0.000181125
46 *265:69 *1779:A1 2.02517e-05
47 *265:69 *310:27 0.000272321
48 *265:69 *436:184 4.96717e-05
49 *265:85 *409:166 0.000114656
50 *265:85 *410:96 6.00136e-06
51 *265:85 *421:78 2.17761e-05
52 *265:85 *455:160 0
53 *265:101 *1777:A0 2.35393e-05
54 *265:101 *1785:A 0.000140259
55 *265:101 *303:10 7.56417e-05
56 *265:101 *450:176 6.4393e-05
57 *265:101 *451:183 0.000169674
58 *265:101 *477:23 0
59 *265:131 *454:147 1.34542e-05
60 *1644:B2 *265:34 3.34818e-06
61 *1715:B *265:101 0
62 *1739:A1 *265:69 2.3191e-05
63 *1739:B2 *265:69 0.00020047
64 *1767:C *265:14 1.59094e-05
65 *1776:D *265:14 5.3304e-05
66 *1776:D *265:101 0.000129522
67 *1954:D *265:26 0.000208149
68 *55:10 *265:34 0.000374011
69 *55:10 *265:55 0.000136486
70 *60:8 *265:110 5.26204e-05
71 *66:8 *265:69 0.00010351
72 *75:10 *265:34 2.26075e-05
73 *150:8 *265:85 0
74 *163:88 *265:85 0.000162134
75 *163:114 *265:101 0
76 *163:114 *265:110 0
77 *164:28 *265:85 0
78 *164:71 *265:34 0.000156061
79 *164:86 *265:34 7.43617e-05
80 *170:6 *1781:S 2.32101e-05
81 *176:16 *265:34 0
82 *176:16 *265:55 0
83 *180:10 *265:34 9.73103e-05
84 *183:10 *265:34 0.00044769
85 *190:12 *265:69 7.00173e-05
86 *190:18 *265:69 0
87 *194:12 *265:85 0.000378492
88 *197:14 *265:69 0.000196487
89 *197:20 *265:85 0
90 *230:25 *265:14 0.000161121
91 *230:36 *265:14 3.70187e-05
92 *231:12 *265:101 0
93 *231:45 *1781:S 0.000423958
94 *240:10 *265:110 0
95 *246:10 *265:14 0.000185755
96 *246:10 *265:101 0.000357537
97 *246:10 *265:110 0.000342296
98 *260:10 *265:34 0
*RES
1 *1776:X *265:4 23 
2 *265:4 *265:14 43.8579 
3 *265:14 *265:26 46.1571 
4 *265:26 *265:34 35.9836 
5 *265:34 *1781:S 43.8621 
6 *265:34 *265:55 31.0536 
7 *265:55 *265:57 2.05071 
8 *265:57 *265:69 48.0214 
9 *265:69 *1779:S 23 
10 *265:57 *1784:S 23 
11 *265:55 *265:85 44.5829 
12 *265:85 *1783:S 23 
13 *265:26 *1782:S 23 
14 *265:4 *265:101 36.0871 
15 *265:101 *1777:S 38 
16 *265:101 *265:110 13.8786 
17 *265:110 *1778:S 40.0507 
18 *265:110 *265:131 34.2107 
19 *265:131 *1780:S 23 
*END

*D_NET *266 0.0287492
*CONN
*I *1787:S I *D sky130_fd_sc_hd__mux2_1
*I *1789:S I *D sky130_fd_sc_hd__mux2_1
*I *1792:S I *D sky130_fd_sc_hd__mux2_1
*I *1793:S I *D sky130_fd_sc_hd__mux2_1
*I *1790:S I *D sky130_fd_sc_hd__mux2_1
*I *1788:S I *D sky130_fd_sc_hd__mux2_1
*I *1791:S I *D sky130_fd_sc_hd__mux2_1
*I *1786:S I *D sky130_fd_sc_hd__mux2_1
*I *1785:Y O *D sky130_fd_sc_hd__nand4_4
*CAP
1 *1787:S 0.000126213
2 *1789:S 2.97985e-05
3 *1792:S 0
4 *1793:S 0
5 *1790:S 0
6 *1788:S 6.30284e-05
7 *1791:S 0
8 *1786:S 0.000239362
9 *1785:Y 0
10 *266:83 0.000733046
11 *266:73 0.00109022
12 *266:71 0.000980181
13 *266:65 0.00144047
14 *266:61 0.00113321
15 *266:53 0.000834657
16 *266:49 0.00128593
17 *266:35 0.00214195
18 *266:31 0.00231208
19 *266:19 0.00264696
20 *266:6 0.00173013
21 *1786:S *1786:A1 5.50049e-05
22 *1786:S *412:133 0.000330514
23 *1786:S *416:92 3.17516e-05
24 *1786:S *416:180 5.42593e-05
25 *1786:S *450:131 0.000191157
26 *1786:S *451:115 0.000305431
27 *1787:S *1787:A0 5.3304e-05
28 *1787:S *1815:A1 4.2573e-05
29 *1787:S *270:149 0.000230753
30 *1787:S *296:6 2.44078e-05
31 *1787:S *408:547 2.4732e-05
32 *1788:S *1788:A1 1.94693e-05
33 *1788:S *453:143 3.7122e-06
34 *1789:S *1647:S0 3.81946e-05
35 *266:19 *1938:CLK 0.000421699
36 *266:19 *270:89 0.00026828
37 *266:19 *270:149 7.37814e-06
38 *266:19 *319:8 7.69935e-05
39 *266:19 *319:23 4.03628e-05
40 *266:19 *327:25 6.48049e-05
41 *266:19 *407:18 0.000299196
42 *266:19 *407:221 0.000184412
43 *266:19 *407:248 0.000705948
44 *266:19 *408:45 0
45 *266:19 *408:49 0
46 *266:19 *408:90 9.84171e-05
47 *266:19 *408:111 6.73994e-05
48 *266:19 *409:38 7.03317e-05
49 *266:19 *409:52 0.0012768
50 *266:19 *412:133 1.14452e-05
51 *266:19 *422:8 0.000163343
52 *266:19 *425:44 1.13579e-05
53 *266:19 *450:131 2.77955e-05
54 *266:19 *450:140 6.16439e-05
55 *266:19 *450:196 0.000369389
56 *266:31 *270:149 2.3529e-05
57 *266:31 *288:12 0.000413622
58 *266:31 *408:30 2.472e-05
59 *266:31 *408:45 2.22183e-05
60 *266:31 *445:10 0.00010018
61 *266:35 *1647:S0 0.000150933
62 *266:35 *1740:S0 2.64616e-05
63 *266:35 *1916:CLK 6.69899e-05
64 *266:35 *290:29 1.01712e-05
65 *266:35 *298:27 5.41385e-05
66 *266:35 *408:555 4.9662e-05
67 *266:49 *1647:A1 0.000107292
68 *266:49 *1647:S0 0.000250982
69 *266:49 *1820:A0 4.92689e-05
70 *266:49 *397:10 0.000161121
71 *266:49 *421:10 0
72 *266:53 *1792:A1 2.64616e-05
73 *266:53 *409:263 0.00014196
74 *266:61 *1647:S1 0
75 *266:61 *1792:A1 3.70187e-05
76 *266:61 *1944:CLK 0.000434093
77 *266:65 *1645:A3 7.73735e-05
78 *266:65 *2073:A 0.000318784
79 *266:65 *420:6 0.000403333
80 *266:71 *1790:A1 0.000171828
81 *266:71 *1818:A0 0
82 *266:71 *299:10 0.000108672
83 *266:71 *395:10 0
84 *266:71 *403:14 0
85 *266:71 *420:57 0
86 *266:71 *436:10 0
87 *266:71 *455:175 3.84694e-05
88 *266:73 *1790:A0 1.02387e-05
89 *266:73 *1790:A1 6.07611e-06
90 *266:83 *1788:A1 6.42902e-05
91 *266:83 *1791:A0 0.000447976
92 *266:83 *1791:A1 2.4754e-05
93 *266:83 *267:47 8.51432e-05
94 *266:83 *289:12 0.000299169
95 *266:83 *297:8 9.53499e-05
96 *266:83 *407:97 0
97 *266:83 *453:143 0.00012085
98 *266:83 *456:134 5.67058e-05
99 *1648:A2 *266:53 0.000143655
100 *2058:D *266:65 0.000321837
101 *31:14 *266:35 3.12704e-05
102 *33:18 *266:19 0.000167039
103 *33:18 *266:31 0.000146206
104 *39:8 *266:71 8.51432e-05
105 *70:10 *266:49 5.67058e-05
106 *97:8 *266:49 8.65436e-05
107 *184:10 *266:61 0
108 *184:10 *266:65 1.24376e-05
109 *186:10 *266:49 0
110 *231:80 *266:61 8.82421e-05
111 *231:131 *266:19 0.000484291
112 *262:22 *266:19 0.00016116
113 *265:14 *1786:S 6.53382e-05
*RES
1 *1785:Y *266:6 38 
2 *266:6 *1786:S 45.5193 
3 *266:6 *266:19 45.0432 
4 *266:19 *266:31 33.3425 
5 *266:31 *266:35 17.3171 
6 *266:35 *266:49 46.1157 
7 *266:49 *266:53 8.74143 
8 *266:53 *266:61 38.7414 
9 *266:61 *266:65 18.27 
10 *266:65 *266:71 29.5 
11 *266:71 *266:73 5.77929 
12 *266:73 *266:83 33.5186 
13 *266:83 *1791:S 23 
14 *266:73 *1788:S 39.0979 
15 *266:71 *1790:S 38 
16 *266:65 *1793:S 23 
17 *266:53 *1792:S 23 
18 *266:35 *1789:S 24.1186 
19 *266:19 *1787:S 41.4696 
*END

*D_NET *267 0.0289176
*CONN
*I *1796:S I *D sky130_fd_sc_hd__mux2_1
*I *1798:S I *D sky130_fd_sc_hd__mux2_1
*I *1801:S I *D sky130_fd_sc_hd__mux2_1
*I *1802:S I *D sky130_fd_sc_hd__mux2_1
*I *1799:S I *D sky130_fd_sc_hd__mux2_1
*I *1795:S I *D sky130_fd_sc_hd__mux2_1
*I *1797:S I *D sky130_fd_sc_hd__mux2_1
*I *1800:S I *D sky130_fd_sc_hd__mux2_1
*I *1794:X O *D sky130_fd_sc_hd__and4b_4
*CAP
1 *1796:S 0.000333619
2 *1798:S 0
3 *1801:S 2.34823e-05
4 *1802:S 2.34823e-05
5 *1799:S 0
6 *1795:S 0
7 *1797:S 0
8 *1800:S 8.69355e-05
9 *1794:X 0.000417778
10 *267:95 0.00132065
11 *267:89 0.00230204
12 *267:87 0.00122702
13 *267:85 0.00146425
14 *267:73 0.00190581
15 *267:71 0.00244054
16 *267:56 0.00157745
17 *267:47 9.67085e-05
18 *267:32 0.00270182
19 *267:26 0.00320111
20 *267:14 0.000985925
21 *267:10 0.000563043
22 *1796:S *1796:A0 0.00014196
23 *1796:S *409:148 0.000243083
24 *1800:S *456:134 5.70419e-05
25 *267:10 *1716:A1 8.16356e-05
26 *267:10 *287:12 0
27 *267:10 *295:8 8.48502e-06
28 *267:10 *411:134 8.9046e-05
29 *267:26 *316:6 7.88926e-05
30 *267:26 *316:14 2.64616e-05
31 *267:26 *316:25 6.25829e-05
32 *267:26 *454:28 6.6869e-05
33 *267:32 *1819:S 0.000268748
34 *267:32 *321:12 4.75206e-05
35 *267:32 *434:23 0.000100733
36 *267:32 *456:108 4.82363e-05
37 *267:32 *456:134 0.000411419
38 *267:47 *407:97 0
39 *267:56 *287:12 4.06039e-05
40 *267:71 *407:43 8.84481e-05
41 *267:73 *1798:A1 0.000132227
42 *267:73 *409:148 0.000283831
43 *267:73 *409:154 0.000215083
44 *267:73 *409:255 0.000441065
45 *267:85 *1798:A1 2.30292e-05
46 *267:85 *290:12 0.000142538
47 *267:85 *407:167 0
48 *267:85 *409:255 5.50106e-05
49 *267:85 *421:14 3.45353e-05
50 *267:85 *421:18 9.57904e-05
51 *267:85 *421:22 8.82787e-06
52 *267:87 *293:12 6.53011e-05
53 *267:87 *421:22 8.68125e-05
54 *267:89 *293:12 2.54193e-05
55 *267:89 *294:12 5.41288e-05
56 *267:95 *1966:CLK 0
57 *267:95 *294:12 5.41385e-05
58 *267:95 *420:22 0
59 *267:95 *420:35 0
60 *267:95 *420:43 0.000199701
61 *267:95 *420:57 0
62 *267:95 *420:59 0
63 *1747:B2 *267:71 0
64 *1761:S *267:32 0.000168975
65 *1917:D *267:26 0.000179042
66 *1954:D *267:10 5.50049e-05
67 *1965:D *267:85 0.000104029
68 *1984:D *267:85 0.000155109
69 *2105:A *267:95 0.000155375
70 *29:12 *267:71 0.000504599
71 *29:18 *267:71 5.83085e-05
72 *45:10 *267:32 5.67058e-05
73 *62:10 *267:71 0.000216721
74 *75:18 *267:26 0.000178517
75 *81:10 *267:89 1.39317e-05
76 *82:8 *267:95 0
77 *163:20 *267:71 8.59227e-05
78 *163:22 *267:71 0.000265996
79 *163:32 *267:56 2.76611e-06
80 *163:32 *267:71 0.00027343
81 *178:8 *267:26 0.000241291
82 *255:10 *267:71 0.000133316
83 *256:8 *267:71 0.000163352
84 *257:8 *267:71 0.000166513
85 *260:10 *267:56 0
86 *260:10 *267:71 0
87 *263:26 *267:14 0.000128756
88 *263:26 *267:26 0.000173934
89 *263:32 *267:32 0.000139352
90 *263:36 *267:32 0.000264559
91 *263:44 *267:32 0.000462784
92 *263:95 *267:10 3.33082e-05
93 *263:95 *267:56 0
94 *263:95 *267:71 0
95 *266:83 *267:47 8.51432e-05
*RES
1 *1794:X *267:10 45.0014 
2 *267:10 *267:14 18.48 
3 *267:14 *267:26 46.0329 
4 *267:26 *267:32 38.9014 
5 *267:32 *1800:S 24.595 
6 *267:32 *267:47 32.2579 
7 *267:47 *1797:S 23 
8 *267:14 *267:56 17.9621 
9 *267:56 *1795:S 38 
10 *267:56 *267:71 49.7171 
11 *267:71 *267:73 16.82 
12 *267:73 *267:85 48.6532 
13 *267:85 *267:87 4.67107 
14 *267:87 *267:89 16.3436 
15 *267:89 *267:95 40.9757 
16 *267:95 *1799:S 38 
17 *267:89 *1802:S 23.4971 
18 *267:87 *1801:S 23.4971 
19 *267:73 *1798:S 23 
20 *267:71 *1796:S 30.7679 
*END

*D_NET *268 0.00494878
*CONN
*I *1804:D I *D sky130_fd_sc_hd__nand4_4
*I *1841:D I *D sky130_fd_sc_hd__and4b_4
*I *1832:C I *D sky130_fd_sc_hd__nand4b_4
*I *1859:D I *D sky130_fd_sc_hd__and4bb_4
*I *1803:X O *D sky130_fd_sc_hd__and2_2
*CAP
1 *1804:D 0
2 *1841:D 0.000107575
3 *1832:C 0
4 *1859:D 0
5 *1803:X 0.000462863
6 *268:48 0.000516201
7 *268:38 0.000523688
8 *268:27 0.000357615
9 *268:12 0.000242553
10 *268:10 0.000462863
11 *1841:D *412:62 6.70361e-05
12 *268:10 *1885:B 9.4713e-05
13 *268:10 *1885:C 0.000310647
14 *268:10 *1885:D 1.22822e-05
15 *268:10 *408:111 0.000136486
16 *268:10 *450:18 3.70094e-05
17 *268:10 *450:96 0.000114092
18 *268:27 *1832:A_N 9.5877e-05
19 *268:27 *276:12 0.00024222
20 *268:27 *276:16 1.37246e-05
21 *268:27 *408:111 1.22803e-05
22 *268:27 *450:14 0.000137651
23 *268:27 *452:32 0.00013404
24 *268:38 *1832:A_N 5.50049e-05
25 *268:38 *452:32 9.03157e-05
26 *268:48 *275:107 0.00034721
27 *268:48 *408:111 7.91596e-05
28 *268:48 *451:111 0.000166532
29 *268:48 *452:32 4.08641e-05
30 *239:10 *268:38 6.28591e-05
31 *239:10 *268:48 2.5415e-05
*RES
1 *1803:X *268:10 45.7679 
2 *268:10 *268:12 15 
3 *268:12 *1859:D 23 
4 *268:12 *268:27 35.9864 
5 *268:27 *1832:C 23 
6 *268:27 *268:38 18.2314 
7 *268:38 *268:48 37.4157 
8 *268:48 *1841:D 39.5743 
9 *268:38 *1804:D 38 
*END

*D_NET *269 0.0309241
*CONN
*I *1806:S I *D sky130_fd_sc_hd__mux2_1
*I *1808:S I *D sky130_fd_sc_hd__mux2_1
*I *1811:S I *D sky130_fd_sc_hd__mux2_1
*I *1812:S I *D sky130_fd_sc_hd__mux2_1
*I *1807:S I *D sky130_fd_sc_hd__mux2_1
*I *1805:S I *D sky130_fd_sc_hd__mux2_1
*I *1809:S I *D sky130_fd_sc_hd__mux2_1
*I *1810:S I *D sky130_fd_sc_hd__mux2_1
*I *1804:Y O *D sky130_fd_sc_hd__nand4_4
*CAP
1 *1806:S 3.26186e-05
2 *1808:S 0
3 *1811:S 0.000232176
4 *1812:S 0
5 *1807:S 7.74572e-05
6 *1805:S 0.000490048
7 *1809:S 0
8 *1810:S 0
9 *1804:Y 0.000281404
10 *269:137 0.000657498
11 *269:127 0.00142861
12 *269:107 0.00137524
13 *269:103 0.000758841
14 *269:101 0.00253641
15 *269:77 0.00272314
16 *269:71 0.000778764
17 *269:61 0.00124514
18 *269:41 0.000895887
19 *269:26 0.00238624
20 *269:12 0.00292121
21 *269:8 0.0018427
22 *1805:S *383:8 0.000303697
23 *1806:S *1729:A3 1.14154e-05
24 *1806:S *1806:A0 1.4345e-05
25 *1806:S *407:281 0
26 *1807:S *1807:A0 5.3304e-05
27 *1811:S *274:74 0
28 *1811:S *373:8 7.13673e-05
29 *1811:S *381:8 0
30 *1811:S *389:8 0.000168754
31 *269:8 *273:8 0.000296035
32 *269:8 *273:12 8.4047e-05
33 *269:8 *376:29 5.24393e-05
34 *269:8 *407:265 0
35 *269:8 *407:423 0
36 *269:8 *451:111 0.000310655
37 *269:8 *452:79 0.000154138
38 *269:8 *452:81 0.000145969
39 *269:12 *274:20 7.76364e-06
40 *269:12 *367:14 0.000120781
41 *269:12 *376:29 0.000389442
42 *269:12 *407:437 0
43 *269:12 *407:523 0
44 *269:12 *452:81 0.000336072
45 *269:12 *452:83 7.70737e-05
46 *269:12 *452:89 0.000114074
47 *269:26 *1865:A0 8.46456e-05
48 *269:26 *1865:A1 0.000173057
49 *269:26 *1970:CLK 0.00022296
50 *269:26 *380:12 5.26204e-05
51 *269:26 *388:10 2.30292e-05
52 *269:26 *429:46 0
53 *269:26 *456:41 0.000177899
54 *269:41 *1847:A1 9.84794e-05
55 *269:41 *2008:CLK 5.97178e-05
56 *269:41 *2040:CLK 0.000271792
57 *269:41 *274:53 2.81066e-05
58 *269:41 *379:29 0.000477628
59 *269:41 *380:12 0.000250007
60 *269:41 *388:10 0
61 *269:41 *407:463 0
62 *269:41 *408:216 0
63 *269:41 *455:73 1.37232e-05
64 *269:61 *1729:A3 5.55568e-05
65 *269:61 *1806:A0 4.9424e-06
66 *269:61 *376:29 1.16872e-05
67 *269:61 *407:281 0.000166006
68 *269:61 *407:415 4.94073e-05
69 *269:71 *1729:A3 2.30292e-05
70 *269:71 *1806:A0 1.32939e-05
71 *269:71 *1836:A1 0.000135037
72 *269:71 *1971:CLK 6.17437e-06
73 *269:71 *273:40 0.000193345
74 *269:71 *384:10 0
75 *269:71 *407:281 0.000317553
76 *269:71 *408:216 0
77 *269:71 *408:239 0.000301116
78 *269:77 *1836:A1 1.19692e-05
79 *269:77 *408:239 6.99782e-05
80 *269:77 *454:49 3.31683e-05
81 *269:77 *454:53 0.000115013
82 *269:77 *456:84 0
83 *269:101 *1830:A0 0.0002438
84 *269:101 *1830:A1 5.26324e-05
85 *269:101 *1830:S 0.000162471
86 *269:101 *1872:S 0
87 *269:101 *2009:CLK 9.01952e-05
88 *269:101 *2025:CLK 0.000100733
89 *269:101 *272:84 0.00126612
90 *269:101 *454:34 5.9836e-05
91 *269:101 *454:41 0.000354116
92 *269:101 *454:89 0.000140259
93 *269:107 *274:74 0
94 *269:107 *382:12 2.96051e-05
95 *269:107 *390:10 1.22803e-05
96 *269:107 *436:129 6.7177e-06
97 *269:127 *366:12 0
98 *269:127 *374:10 7.88828e-05
99 *269:127 *382:12 0.000116554
100 *269:127 *390:10 0.000141879
101 *269:127 *427:79 0.000227208
102 *269:137 *1737:A1 0.000103469
103 *269:137 *1737:A3 2.43944e-05
104 *269:137 *385:8 3.52233e-06
105 *269:137 *407:325 4.30666e-05
106 *269:137 *453:70 0.00026813
107 *2009:D *269:101 1.33947e-05
108 *2025:D *269:101 4.9054e-06
109 *2040:D *269:41 0.000146207
110 *83:8 *1805:S 8.90115e-05
111 *83:8 *269:26 7.18161e-05
112 *84:10 *269:71 5.05082e-05
113 *105:10 *269:101 3.22879e-05
114 *107:10 *269:12 0.000171906
115 *117:8 *269:127 0
116 *117:8 *269:137 0
117 *259:8 *269:71 2.45549e-06
*RES
1 *1804:Y *269:8 46.5964 
2 *269:8 *269:12 35.9214 
3 *269:12 *269:26 41.97 
4 *269:26 *1810:S 38 
5 *269:26 *269:41 35.0307 
6 *269:41 *1809:S 23 
7 *269:12 *1805:S 30.6643 
8 *269:8 *269:61 23.7414 
9 *269:61 *269:71 43.7336 
10 *269:71 *269:77 33.6664 
11 *269:77 *269:101 46.6071 
12 *269:101 *269:103 15 
13 *269:103 *269:107 9.92214 
14 *269:107 *269:127 48.5289 
15 *269:127 *269:137 40.0568 
16 *269:137 *1807:S 39.0979 
17 *269:107 *1812:S 38 
18 *269:103 *1811:S 43.4271 
19 *269:77 *1808:S 23 
20 *269:61 *1806:S 23.8493 
*END

*D_NET *270 0.0329655
*CONN
*I *1815:S I *D sky130_fd_sc_hd__mux2_1
*I *1817:S I *D sky130_fd_sc_hd__mux2_1
*I *1820:S I *D sky130_fd_sc_hd__mux2_1
*I *1814:S I *D sky130_fd_sc_hd__mux2_1
*I *1816:S I *D sky130_fd_sc_hd__mux2_1
*I *1821:S I *D sky130_fd_sc_hd__mux2_1
*I *1818:S I *D sky130_fd_sc_hd__mux2_1
*I *1819:S I *D sky130_fd_sc_hd__mux2_1
*I *1813:X O *D sky130_fd_sc_hd__and4bb_4
*CAP
1 *1815:S 0
2 *1817:S 0
3 *1820:S 0
4 *1814:S 0
5 *1816:S 2.0995e-05
6 *1821:S 0
7 *1818:S 0.00014061
8 *1819:S 0.000437125
9 *1813:X 0.000158151
10 *270:149 0.000569731
11 *270:127 0.000544551
12 *270:113 0.00117244
13 *270:105 0.00151542
14 *270:91 0.00145726
15 *270:89 0.00128708
16 *270:66 0.000542473
17 *270:47 0.00142674
18 *270:34 0.00133352
19 *270:30 0.00197664
20 *270:18 0.00201404
21 *270:16 0.00179813
22 *270:10 0.000458071
23 *1816:S *1779:A1 1.14154e-05
24 *1818:S *455:160 0.000315789
25 *1819:S *433:10 1.44813e-05
26 *1819:S *433:76 6.7177e-06
27 *1819:S *433:122 7.98259e-05
28 *1819:S *453:116 2.76611e-06
29 *1819:S *453:125 6.43149e-05
30 *1819:S *453:164 0.000124418
31 *1819:S *456:108 0.00014703
32 *1819:S *457:31 0
33 *270:10 *1758:B 5.3304e-05
34 *270:10 *407:248 8.48406e-05
35 *270:16 *409:52 1.23293e-05
36 *270:30 *1735:B1 0.000868002
37 *270:30 *1779:A0 0.000120867
38 *270:30 *1779:A1 7.43025e-06
39 *270:30 *1814:A1 2.93747e-05
40 *270:30 *410:72 0.000395901
41 *270:34 *1779:A1 2.4754e-05
42 *270:34 *393:27 0.000526319
43 *270:34 *408:431 6.9805e-05
44 *270:34 *453:164 0.000438468
45 *270:47 *1937:CLK 0.000149011
46 *270:47 *408:469 9.19665e-05
47 *270:47 *433:122 2.05041e-05
48 *270:47 *436:48 0.000122386
49 *270:47 *457:31 0
50 *270:66 *398:25 6.17437e-06
51 *270:66 *420:131 1.83667e-05
52 *270:66 *436:48 0.000498886
53 *270:66 *457:18 0.000194327
54 *270:89 *1939:CLK 0.000271392
55 *270:89 *319:8 0.000168744
56 *270:89 *319:23 0.000414075
57 *270:89 *407:18 3.97296e-05
58 *270:89 *408:80 0.00042646
59 *270:89 *408:90 0.00042645
60 *270:89 *416:120 0
61 *270:89 *416:169 0.000176465
62 *270:89 *425:12 0
63 *270:89 *425:44 0.000150724
64 *270:89 *425:75 0
65 *270:89 *425:84 0
66 *270:89 *452:150 0.000485212
67 *270:105 *1955:CLK 0.000374626
68 *270:105 *1963:CLK 0.000180456
69 *270:105 *408:547 0.000189071
70 *270:113 *1753:A1 0.000400204
71 *270:113 *1897:CLK 0
72 *270:113 *298:12 0.000143655
73 *270:113 *298:27 0.00018282
74 *270:113 *408:555 0
75 *270:127 *1740:A1 3.70094e-05
76 *270:127 *1820:A1 5.90675e-06
77 *270:127 *402:10 5.94125e-05
78 *270:149 *1815:A1 0.000147712
79 *270:149 *296:6 0.000139352
80 *270:149 *408:45 4.18957e-05
81 *270:149 *408:547 0.000107502
82 *1739:A1 *270:30 0.000566295
83 *1739:A2 *270:30 0.000140259
84 *1739:B2 *270:30 3.0023e-05
85 *1787:S *270:149 0.000230753
86 *1957:D *270:127 1.64354e-05
87 *1963:D *270:105 0.000537477
88 *29:6 *270:30 0.00170888
89 *31:14 *270:113 9.04083e-05
90 *33:18 *270:89 0.000401816
91 *34:14 *270:113 0.00012823
92 *45:10 *1819:S 0.00031842
93 *50:8 *270:47 0
94 *68:8 *270:105 0.00015763
95 *68:8 *270:149 0.000125213
96 *91:10 *270:30 7.59794e-05
97 *92:10 *270:149 5.3304e-05
98 *98:10 *270:66 6.7177e-06
99 *153:8 *270:66 0.000110922
100 *163:32 *270:30 0.000269781
101 *164:73 *270:30 4.2062e-05
102 *164:107 *270:10 0.000177805
103 *230:51 *270:10 2.93335e-05
104 *231:131 *270:89 0.000103019
105 *233:10 *270:10 0.000345817
106 *247:8 *270:47 5.56203e-05
107 *262:36 *270:113 0.000487147
108 *262:51 *270:113 4.19743e-05
109 *262:51 *270:127 0.0002246
110 *266:19 *270:89 0.00026828
111 *266:19 *270:149 7.37814e-06
112 *266:31 *270:149 2.3529e-05
113 *267:32 *1819:S 0.000268748
*RES
1 *1813:X *270:10 43.3443 
2 *270:10 *270:16 18.8529 
3 *270:16 *270:18 3.48 
4 *270:18 *270:30 43.1271 
5 *270:30 *270:34 21.815 
6 *270:34 *1819:S 49.6 
7 *270:34 *270:47 16.6957 
8 *270:47 *1818:S 41.48 
9 *270:47 *270:66 42.6564 
10 *270:66 *1821:S 38 
11 *270:30 *1816:S 23.4971 
12 *270:18 *1814:S 23 
13 *270:16 *270:89 49.655 
14 *270:89 *270:91 15 
15 *270:91 *270:105 19.0986 
16 *270:105 *270:113 46.0536 
17 *270:113 *270:127 40.1086 
18 *270:127 *1820:S 23 
19 *270:105 *1817:S 23 
20 *270:91 *270:149 41.5171 
21 *270:149 *1815:S 23 
*END

*D_NET *271 0.00291618
*CONN
*I *1823:D I *D sky130_fd_sc_hd__and4bb_4
*I *1868:C I *D sky130_fd_sc_hd__nand4b_4
*I *1850:D I *D sky130_fd_sc_hd__nand4_4
*I *1885:D I *D sky130_fd_sc_hd__and4b_4
*I *1822:Y O *D sky130_fd_sc_hd__nor2_2
*CAP
1 *1823:D 0
2 *1868:C 0
3 *1850:D 0.000176579
4 *1885:D 0.000224137
5 *1822:Y 0
6 *271:19 0.000308124
7 *271:17 0.000286984
8 *271:4 0.000379576
9 *1850:D *277:86 8.51432e-05
10 *1850:D *411:43 0.000167452
11 *1850:D *450:50 3.46158e-05
12 *1850:D *450:61 9.5877e-05
13 *1885:D *1803:B 4.34876e-05
14 *1885:D *1885:B 0.000180218
15 *1885:D *1885:C 2.93845e-05
16 *1885:D *411:70 0.000390685
17 *271:17 *1711:A2 0
18 *271:17 *409:90 0.000201176
19 *271:17 *412:222 0
20 *271:17 *414:29 9.48381e-06
21 *271:19 *272:8 0
22 *271:19 *277:86 4.08537e-05
23 *271:19 *409:90 0.00019682
24 *271:19 *412:222 0
25 *1803:A *1885:D 5.3304e-05
26 *268:10 *1885:D 1.22822e-05
*RES
1 *1822:Y *271:4 23 
2 *271:4 *1885:D 28.8829 
3 *271:4 *271:17 17.9621 
4 *271:17 *271:19 3.31429 
5 *271:19 *1850:D 42.3293 
6 *271:19 *1868:C 38 
7 *271:17 *1823:D 38 
*END

*D_NET *272 0.0327354
*CONN
*I *1827:S I *D sky130_fd_sc_hd__mux2_1
*I *1831:S I *D sky130_fd_sc_hd__mux2_1
*I *1826:S I *D sky130_fd_sc_hd__mux2_1
*I *1830:S I *D sky130_fd_sc_hd__mux2_1
*I *1824:S I *D sky130_fd_sc_hd__mux2_1
*I *1828:S I *D sky130_fd_sc_hd__mux2_1
*I *1829:S I *D sky130_fd_sc_hd__mux2_1
*I *1825:S I *D sky130_fd_sc_hd__mux2_1
*I *1823:X O *D sky130_fd_sc_hd__and4bb_4
*CAP
1 *1827:S 2.34823e-05
2 *1831:S 0.000150548
3 *1826:S 0
4 *1830:S 0.000125928
5 *1824:S 0
6 *1828:S 0
7 *1829:S 0
8 *1825:S 0
9 *1823:X 9.75107e-05
10 *272:109 0.00158401
11 *272:99 0.00212385
12 *272:84 0.00129256
13 *272:74 0.00134687
14 *272:64 0.00122944
15 *272:48 0.000947234
16 *272:35 0.00109488
17 *272:31 0.00173654
18 *272:25 0.0032533
19 *272:23 0.0018329
20 *272:14 0.000566106
21 *272:8 0.00113156
22 *1830:S *1830:A0 9.75779e-05
23 *1831:S *1831:A0 1.76557e-05
24 *1831:S *1831:A1 2.93845e-05
25 *272:8 *277:86 1.12487e-05
26 *272:8 *412:222 5.61414e-05
27 *272:14 *1702:B 0
28 *272:14 *1850:B 7.30875e-05
29 *272:14 *1868:B 0.000141879
30 *272:14 *275:16 0.000182158
31 *272:14 *277:86 0.000238309
32 *272:14 *411:33 7.75329e-06
33 *272:14 *412:222 6.7177e-06
34 *272:14 *450:61 6.25829e-05
35 *272:14 *452:46 9.67842e-05
36 *272:23 *1825:A0 0.000269775
37 *272:23 *431:70 1.56762e-05
38 *272:23 *452:46 9.67842e-05
39 *272:25 *1728:A0 6.70363e-05
40 *272:25 *1825:A0 0.000337011
41 *272:25 *1852:A1 0
42 *272:25 *1869:A1 0.000141869
43 *272:25 *1870:A1 6.02277e-06
44 *272:25 *2045:CLK 0.000279489
45 *272:25 *275:16 0
46 *272:25 *335:10 0.000216051
47 *272:25 *336:10 9.35752e-05
48 *272:31 *278:102 1.76557e-05
49 *272:31 *278:110 0.000261215
50 *272:31 *279:10 7.02841e-05
51 *272:31 *335:10 0.000190171
52 *272:31 *343:12 5.14746e-06
53 *272:31 *451:29 2.65879e-05
54 *272:35 *1874:A1 0.00030457
55 *272:48 *1641:A1 0.000138727
56 *272:48 *1874:A1 5.33597e-05
57 *272:48 *408:148 0.000337642
58 *272:48 *408:150 0.000219873
59 *272:48 *408:154 0.000345176
60 *272:64 *1832:A_N 0.000708006
61 *272:64 *277:14 0.00145578
62 *272:64 *277:86 0.000293906
63 *272:64 *412:39 0.00039069
64 *272:74 *1744:S0 0.000124689
65 *272:74 *1827:A0 0.000112685
66 *272:74 *277:14 0.000481937
67 *272:74 *282:14 4.96717e-05
68 *272:84 *277:26 0.00056367
69 *272:84 *409:176 0
70 *272:84 *454:89 5.7831e-05
71 *272:99 *428:17 9.08091e-05
72 *272:99 *428:19 5.19151e-05
73 *272:99 *428:23 8.58116e-05
74 *272:99 *428:66 5.19151e-05
75 *272:109 *1634:S0 0
76 *272:109 *1736:A0 0
77 *272:109 *1826:A0 8.87659e-05
78 *272:109 *379:8 2.26385e-05
79 *272:109 *407:477 0
80 *272:109 *409:192 0.000453335
81 *272:109 *416:43 0
82 *272:109 *426:14 9.98995e-05
83 *272:109 *455:14 5.29672e-05
84 *272:109 *455:20 0
85 *272:109 *456:10 9.91798e-05
86 *272:109 *456:18 0
87 *2044:D *272:31 2.61544e-05
88 *100:8 *272:23 5.12254e-05
89 *106:8 *272:99 0.000110913
90 *111:8 *272:109 0
91 *127:8 *272:109 0.000348456
92 *140:8 *272:25 0
93 *155:8 *272:35 0
94 *159:8 *272:109 0
95 *181:14 *272:48 0
96 *183:10 *272:74 0.00042553
97 *197:14 *272:84 5.79466e-05
98 *237:14 *272:25 0
99 *253:10 *272:99 0.00106762
100 *253:10 *272:109 0.000691798
101 *258:10 *272:74 0.000139346
102 *259:12 *272:74 0
103 *269:101 *1830:S 0.000162471
104 *269:101 *272:84 0.00126612
105 *271:19 *272:8 0
*RES
1 *1823:X *272:8 40.2579 
2 *272:8 *272:14 25.3986 
3 *272:14 *1825:S 23 
4 *272:14 *272:23 19.4329 
5 *272:23 *272:25 36.4157 
6 *272:25 *272:31 39.1736 
7 *272:31 *272:35 19.0186 
8 *272:35 *1829:S 38 
9 *272:35 *272:48 38.5521 
10 *272:48 *1828:S 23 
11 *272:25 *1824:S 38 
12 *272:8 *272:64 35.6314 
13 *272:64 *272:74 44.1686 
14 *272:74 *272:84 49.2436 
15 *272:84 *1830:S 26.1693 
16 *272:84 *272:99 29.2307 
17 *272:99 *272:109 49.5514 
18 *272:109 *1826:S 23 
19 *272:99 *1831:S 40.5271 
20 *272:64 *1827:S 23.4971 
*END

*D_NET *273 0.0227993
*CONN
*I *1836:S I *D sky130_fd_sc_hd__mux2_1
*I *1838:S I *D sky130_fd_sc_hd__mux2_1
*I *1837:S I *D sky130_fd_sc_hd__mux2_1
*I *1839:S I *D sky130_fd_sc_hd__mux2_1
*I *1835:S I *D sky130_fd_sc_hd__mux2_1
*I *1840:S I *D sky130_fd_sc_hd__mux2_1
*I *1833:S I *D sky130_fd_sc_hd__mux2_1
*I *1834:S I *D sky130_fd_sc_hd__mux2_1
*I *1832:Y O *D sky130_fd_sc_hd__nand4b_4
*CAP
1 *1836:S 0
2 *1838:S 0.000120921
3 *1837:S 0
4 *1839:S 6.30879e-05
5 *1835:S 0
6 *1840:S 0.000183095
7 *1833:S 0
8 *1834:S 2.51778e-05
9 *1832:Y 0.000257606
10 *273:84 0.00117047
11 *273:67 0.000511607
12 *273:63 0.00161899
13 *273:54 0.00126621
14 *273:52 0.00172289
15 *273:46 0.00126061
16 *273:40 0.00151592
17 *273:27 0.00075456
18 *273:12 0.000841118
19 *273:8 0.00133499
20 *1834:S *1834:A0 5.50049e-05
21 *1838:S *1838:A0 0.000153236
22 *1838:S *1838:A1 2.30292e-05
23 *1839:S *457:85 0.000144494
24 *1840:S *1840:A0 5.56279e-05
25 *273:8 *1804:A 0.000221184
26 *273:8 *407:265 0
27 *273:8 *450:32 0.000107641
28 *273:8 *451:111 0.000141304
29 *273:12 *407:265 0
30 *273:27 *1834:A0 9.41704e-05
31 *273:27 *274:127 0.000131792
32 *273:27 *278:88 0.000372221
33 *273:27 *278:98 1.14452e-05
34 *273:27 *367:25 1.14452e-05
35 *273:27 *407:427 3.84694e-05
36 *273:27 *407:437 3.53893e-05
37 *273:27 *431:8 2.18409e-05
38 *273:27 *431:12 2.32101e-05
39 *273:27 *452:46 0.000112665
40 *273:27 *452:68 0.000245199
41 *273:40 *1971:CLK 2.32004e-05
42 *273:40 *431:12 0.00100715
43 *273:46 *1744:S0 5.62433e-05
44 *273:46 *1808:A1 0.000214862
45 *273:46 *1863:S 1.7992e-05
46 *273:46 *276:53 9.20311e-06
47 *273:46 *386:14 0.000354778
48 *273:46 *407:285 7.38842e-05
49 *273:46 *408:216 0
50 *273:52 *1635:S 0.000313488
51 *273:52 *1838:A0 0.000178383
52 *273:52 *409:192 4.17736e-05
53 *273:54 *409:192 0.000400204
54 *273:54 *455:73 6.08617e-05
55 *273:67 *1862:A0 0.000513026
56 *273:67 *1862:S 0.000105062
57 *273:67 *278:47 0
58 *273:67 *361:10 8.4047e-05
59 *273:67 *408:269 0.00016994
60 *273:67 *453:51 9.48381e-06
61 *273:67 *453:90 7.80251e-05
62 *273:84 *1650:A0 7.48331e-05
63 *273:84 *1862:S 5.08899e-05
64 *273:84 *1866:A0 0.000431852
65 *273:84 *276:86 0.000516216
66 *273:84 *382:31 0
67 *273:84 *408:293 0.00104522
68 *273:84 *427:10 2.24973e-05
69 *273:84 *427:21 6.61686e-06
70 *273:84 *427:94 0.000164291
71 *273:84 *453:90 0.000544299
72 *109:10 *273:67 0.000107538
73 *133:10 *273:67 0
74 *134:8 *273:46 0.000169683
75 *174:14 *273:52 4.94073e-05
76 *176:8 *273:52 9.75779e-05
77 *183:8 *1838:S 0.000276667
78 *183:8 *273:52 9.84794e-05
79 *183:10 *273:46 0.000211578
80 *239:10 *273:27 0
81 *269:8 *273:8 0.000296035
82 *269:8 *273:12 8.4047e-05
83 *269:71 *273:40 0.000193345
*RES
1 *1832:Y *273:8 45.8921 
2 *273:8 *273:12 16.2014 
3 *273:12 *1834:S 23.6214 
4 *273:12 *273:27 46.3229 
5 *273:27 *1833:S 23 
6 *273:8 *273:40 32.2136 
7 *273:40 *273:46 43.5264 
8 *273:46 *273:52 14.6036 
9 *273:52 *273:54 19.6786 
10 *273:54 *1840:S 26.0036 
11 *273:54 *273:63 15 
12 *273:63 *273:67 29.5829 
13 *273:67 *1835:S 23 
14 *273:63 *273:84 42.3989 
15 *273:84 *1839:S 39.5743 
16 *273:52 *1837:S 23 
17 *273:46 *1838:S 28.075 
18 *273:40 *1836:S 23 
*END

*D_NET *274 0.0217962
*CONN
*I *1842:S I *D sky130_fd_sc_hd__mux2_1
*I *1843:S I *D sky130_fd_sc_hd__mux2_1
*I *1847:S I *D sky130_fd_sc_hd__mux2_1
*I *1846:S I *D sky130_fd_sc_hd__mux2_1
*I *1844:S I *D sky130_fd_sc_hd__mux2_1
*I *1848:S I *D sky130_fd_sc_hd__mux2_1
*I *1849:S I *D sky130_fd_sc_hd__mux2_1
*I *1845:S I *D sky130_fd_sc_hd__mux2_1
*I *1841:X O *D sky130_fd_sc_hd__and4b_4
*CAP
1 *1842:S 0
2 *1843:S 0.000240037
3 *1847:S 0.000106485
4 *1846:S 2.34823e-05
5 *1844:S 2.30556e-05
6 *1848:S 0
7 *1849:S 4.82937e-05
8 *1845:S 6.7348e-05
9 *1841:X 0.000322083
10 *274:127 0.000754174
11 *274:106 0.000994212
12 *274:74 0.000773696
13 *274:61 0.00197765
14 *274:55 0.00216362
15 *274:53 0.00136533
16 *274:49 0.00137738
17 *274:31 0.00138461
18 *274:20 0.00177302
19 *274:10 0.00177007
20 *1843:S *1861:A0 0.00011775
21 *1843:S *1861:A1 9.41704e-05
22 *1843:S *276:35 0.000185428
23 *1843:S *376:10 0
24 *1845:S *1845:A1 7.88828e-05
25 *1847:S *456:52 2.47015e-05
26 *1849:S *1849:A1 5.67058e-05
27 *1849:S *382:12 2.18506e-05
28 *274:10 *276:16 5.61714e-05
29 *274:10 *408:111 0.000430922
30 *274:10 *430:75 7.76364e-06
31 *274:10 *451:111 0.000696784
32 *274:20 *1845:A1 0.000218493
33 *274:20 *278:88 0
34 *274:20 *407:437 3.88504e-05
35 *274:20 *430:75 1.19692e-05
36 *274:20 *451:111 0.000195238
37 *274:20 *452:89 0.00011077
38 *274:31 *455:102 0
39 *274:31 *456:52 2.36844e-05
40 *274:31 *456:63 3.14377e-05
41 *274:31 *456:84 3.2203e-05
42 *274:49 *1634:A3 0.000440981
43 *274:49 *363:12 1.1741e-05
44 *274:49 *379:29 1.01712e-05
45 *274:49 *409:192 0.000105159
46 *274:49 *426:98 0.000139657
47 *274:49 *456:52 4.40101e-05
48 *274:53 *1846:A1 0.000173442
49 *274:53 *379:29 1.36806e-05
50 *274:53 *455:73 1.21972e-05
51 *274:55 *1846:A0 9.8971e-06
52 *274:55 *1846:A1 3.22879e-05
53 *274:55 *1862:A0 4.96717e-05
54 *274:55 *377:25 0.000292206
55 *274:55 *453:79 3.22118e-05
56 *274:55 *453:88 1.32939e-05
57 *274:61 *377:25 4.96303e-05
58 *274:61 *382:12 0
59 *274:61 *427:66 0
60 *274:74 *381:8 0
61 *274:74 *382:12 0
62 *274:74 *427:66 0
63 *274:127 *278:98 0.000851301
64 *274:127 *407:437 0.000141879
65 *274:127 *430:67 6.51031e-05
66 *274:127 *451:75 6.48049e-05
67 *274:127 *451:86 0.000603633
68 *274:127 *451:101 0.000263098
69 *1811:S *274:74 0
70 *89:8 *274:74 4.23817e-05
71 *90:8 *274:61 0
72 *107:10 *274:20 3.71369e-05
73 *111:8 *274:49 6.53491e-05
74 *119:10 *274:55 5.50049e-05
75 *121:8 *274:74 0
76 *122:8 *274:61 0
77 *132:8 *274:10 0.000166513
78 *133:10 *274:55 5.50106e-05
79 *175:8 *274:31 8.29273e-05
80 *175:8 *274:49 6.3568e-06
81 *176:12 *274:31 7.03766e-05
82 *239:10 *274:127 2.91142e-05
83 *269:12 *274:20 7.76364e-06
84 *269:41 *274:53 2.81066e-05
85 *269:107 *274:74 0
86 *273:27 *274:127 0.000131792
*RES
1 *1841:X *274:10 48.8543 
2 *274:10 *274:20 42.9229 
3 *274:20 *1845:S 24.5743 
4 *274:20 *274:31 20.9554 
5 *274:31 *274:49 46.1468 
6 *274:49 *274:53 20.8621 
7 *274:53 *274:55 17.7729 
8 *274:55 *274:61 35.4864 
9 *274:61 *1849:S 39.0979 
10 *274:61 *274:74 29.5829 
11 *274:74 *1848:S 23 
12 *274:55 *1844:S 23.4971 
13 *274:53 *1846:S 23.4971 
14 *274:31 *1847:S 39.4189 
15 *274:10 *274:106 15 
16 *274:106 *1843:S 27.93 
17 *274:106 *274:127 35.0307 
18 *274:127 *1842:S 38 
*END

*D_NET *275 0.0356844
*CONN
*I *1854:S I *D sky130_fd_sc_hd__mux2_1
*I *1857:S I *D sky130_fd_sc_hd__mux2_1
*I *1858:S I *D sky130_fd_sc_hd__mux2_1
*I *1852:S I *D sky130_fd_sc_hd__mux2_1
*I *1851:S I *D sky130_fd_sc_hd__mux2_1
*I *1855:S I *D sky130_fd_sc_hd__mux2_1
*I *1853:S I *D sky130_fd_sc_hd__mux2_1
*I *1856:S I *D sky130_fd_sc_hd__mux2_1
*I *1850:Y O *D sky130_fd_sc_hd__nand4_4
*CAP
1 *1854:S 0.000190861
2 *1857:S 0.000163232
3 *1858:S 0
4 *1852:S 5.751e-05
5 *1851:S 2.34823e-05
6 *1855:S 0
7 *1853:S 7.21924e-05
8 *1856:S 0.000202771
9 *1850:Y 0.000112975
10 *275:131 0.00084253
11 *275:121 0.00100576
12 *275:119 0.00120523
13 *275:111 0.00147073
14 *275:107 0.00230409
15 *275:80 0.0001339
16 *275:63 0.00131539
17 *275:57 0.00265234
18 *275:44 0.00222758
19 *275:34 0.000921513
20 *275:30 0.0012675
21 *275:16 0.00174852
22 *275:6 0.0029144
23 *1852:S *1852:A0 6.17437e-06
24 *1853:S *1736:A2 5.3304e-05
25 *1853:S *353:25 4.93223e-05
26 *1854:S *354:21 0.00014411
27 *1854:S *454:34 0
28 *1856:S *348:8 4.08537e-05
29 *1856:S *356:14 8.58486e-05
30 *1856:S *429:59 6.6869e-05
31 *1857:S *1830:A0 1.12487e-05
32 *1857:S *1857:A1 5.67058e-05
33 *1857:S *1892:A0 8.62876e-05
34 *1857:S *349:8 8.11552e-05
35 *1857:S *457:50 3.14274e-05
36 *275:6 *411:43 2.02872e-05
37 *275:6 *411:244 4.79641e-05
38 *275:16 *1728:A2 0.000136486
39 *275:16 *1852:A1 0.000381635
40 *275:16 *1887:A0 0.000219873
41 *275:16 *1995:CLK 0
42 *275:16 *2045:CLK 0
43 *275:16 *277:86 5.80963e-05
44 *275:16 *277:92 5.71732e-05
45 *275:16 *352:10 7.32961e-05
46 *275:16 *408:134 0.00019095
47 *275:16 *411:33 0.000167443
48 *275:16 *452:54 0.000122397
49 *275:30 *1852:A0 0.000145326
50 *275:30 *1887:S 0.000183733
51 *275:30 *276:143 0
52 *275:30 *277:100 0.000189846
53 *275:30 *408:142 0.000616017
54 *275:30 *408:146 0.000786872
55 *275:30 *408:355 0
56 *275:30 *409:98 0
57 *275:30 *430:14 0
58 *275:30 *451:66 0
59 *275:34 *1641:S0 4.6595e-05
60 *275:34 *1851:A1 0.000305431
61 *275:34 *407:546 4.67488e-05
62 *275:44 *1641:S0 0.000575847
63 *275:44 *348:8 0.000125506
64 *275:44 *348:27 0.000122634
65 *275:44 *356:27 0
66 *275:44 *429:59 2.71291e-05
67 *275:57 *2024:CLK 0.000163496
68 *275:57 *347:27 5.85822e-06
69 *275:57 *356:6 2.81406e-06
70 *275:57 *429:59 7.07238e-05
71 *275:63 *1888:A0 3.47781e-05
72 *275:63 *2064:CLK 0.00012377
73 *275:63 *345:8 0.000246748
74 *275:63 *347:6 1.6158e-05
75 *275:63 *347:27 2.92911e-06
76 *275:80 *1855:A1 5.3304e-05
77 *275:80 *347:12 0.000145969
78 *275:80 *355:8 0.000272312
79 *275:80 *407:477 5.94125e-05
80 *275:80 *408:178 5.3304e-05
81 *275:80 *455:20 0
82 *275:107 *278:22 0.000464523
83 *275:107 *411:33 1.14154e-05
84 *275:107 *411:43 0.000312348
85 *275:107 *450:32 0.000267178
86 *275:107 *450:39 0.000125213
87 *275:107 *450:50 0.000545234
88 *275:107 *450:61 1.56762e-05
89 *275:111 *277:26 1.01436e-05
90 *275:111 *278:22 4.07715e-05
91 *275:111 *346:14 0
92 *275:111 *454:34 0
93 *275:119 *1892:A0 5.50106e-05
94 *275:119 *1892:S 3.7122e-06
95 *275:119 *2063:CLK 0.000397602
96 *275:119 *277:30 0.000161905
97 *275:119 *285:8 0.000178517
98 *275:119 *346:14 0.000183733
99 *275:131 *1657:A3 0.000122636
100 *275:131 *1830:A0 0.000130826
101 *275:131 *1831:A1 2.93845e-05
102 *275:131 *1858:A1 0.000218952
103 *275:131 *1892:S 7.04362e-05
104 *275:131 *276:61 0
105 *275:131 *277:42 8.87584e-05
106 *275:131 *278:41 5.70718e-05
107 *275:131 *416:22 4.11344e-05
108 *275:131 *416:28 0.000140661
109 *275:131 *436:92 0.000850101
110 *275:131 *457:50 2.22183e-05
111 *275:131 *457:52 7.75329e-06
112 *1990:D *275:57 0.000408755
113 *1992:D *275:119 8.90284e-05
114 *2024:D *275:57 0.0002907
115 *2046:D *275:63 0.000313255
116 *2049:D *275:57 0.000141648
117 *2063:D *275:119 0.000146207
118 *2064:D *275:63 0.000616613
119 *123:10 *275:34 5.25848e-05
120 *131:10 *275:30 0.000564498
121 *139:10 *275:30 0.000136486
122 *141:8 *275:63 0
123 *144:10 *1856:S 0
124 *161:8 *1857:S 0
125 *176:12 *1854:S 0.000105062
126 *176:12 *275:111 6.79006e-05
127 *181:8 *275:44 0.000220047
128 *251:14 *275:63 4.6318e-06
129 *268:48 *275:107 0.00034721
130 *272:14 *275:16 0.000182158
131 *272:25 *275:16 0
*RES
1 *1850:Y *275:6 24.5743 
2 *275:6 *275:16 47.11 
3 *275:16 *275:30 44.2486 
4 *275:30 *275:34 18.9564 
5 *275:34 *275:44 34.2229 
6 *275:44 *1856:S 42.7229 
7 *275:44 *275:57 34.2021 
8 *275:57 *275:63 35.01 
9 *275:63 *1853:S 39.5743 
10 *275:57 *275:80 34.2879 
11 *275:80 *1855:S 23 
12 *275:34 *1851:S 23.4971 
13 *275:16 *1852:S 24.0979 
14 *275:6 *275:107 36.54 
15 *275:107 *275:111 16.9057 
16 *275:111 *275:119 36.75 
17 *275:119 *275:121 15 
18 *275:121 *275:131 35.0929 
19 *275:131 *1858:S 23 
20 *275:121 *1857:S 41.8529 
21 *275:111 *1854:S 42.7229 
*END

*D_NET *276 0.0259523
*CONN
*I *1860:S I *D sky130_fd_sc_hd__mux2_1
*I *1865:S I *D sky130_fd_sc_hd__mux2_1
*I *1864:S I *D sky130_fd_sc_hd__mux2_1
*I *1863:S I *D sky130_fd_sc_hd__mux2_1
*I *1867:S I *D sky130_fd_sc_hd__mux2_1
*I *1866:S I *D sky130_fd_sc_hd__mux2_1
*I *1862:S I *D sky130_fd_sc_hd__mux2_1
*I *1861:S I *D sky130_fd_sc_hd__mux2_1
*I *1859:X O *D sky130_fd_sc_hd__and4bb_4
*CAP
1 *1860:S 0
2 *1865:S 0
3 *1864:S 0
4 *1863:S 0.00035842
5 *1867:S 0
6 *1866:S 0
7 *1862:S 0.000217033
8 *1861:S 3.49607e-05
9 *1859:X 0.000162
10 *276:143 0.000891593
11 *276:123 0.001219
12 *276:117 0.00195766
13 *276:86 0.000568285
14 *276:67 0.000920341
15 *276:61 0.000452029
16 *276:53 0.00245659
17 *276:39 0.00288256
18 *276:35 0.00167134
19 *276:22 0.000973667
20 *276:16 0.0017773
21 *276:12 0.000657125
22 *1861:S *1861:A0 0
23 *1861:S *376:29 6.16439e-05
24 *1862:S *1840:A0 5.04049e-05
25 *1862:S *1862:A0 3.92407e-05
26 *1862:S *377:25 1.83564e-05
27 *1862:S *407:325 0
28 *1863:S *1863:A0 5.82823e-05
29 *1863:S *408:216 0.000139647
30 *276:12 *408:111 0.000186427
31 *276:12 *450:14 2.32101e-05
32 *276:16 *278:88 0.000580536
33 *276:16 *408:111 0.000919859
34 *276:16 *430:75 6.25829e-05
35 *276:16 *452:32 3.89103e-05
36 *276:22 *1729:A0 0
37 *276:22 *1861:A0 0
38 *276:22 *376:29 8.4047e-05
39 *276:22 *407:423 1.43908e-05
40 *276:22 *430:75 6.17437e-06
41 *276:35 *1861:A0 6.70749e-05
42 *276:35 *376:10 0.000196377
43 *276:35 *429:99 4.75206e-05
44 *276:39 *2039:CLK 1.59094e-05
45 *276:39 *429:99 0.0001042
46 *276:39 *429:101 6.88885e-05
47 *276:53 *1973:CLK 8.82787e-05
48 *276:53 *1993:CLK 2.30292e-05
49 *276:53 *2039:CLK 4.56447e-05
50 *276:53 *386:12 7.38929e-05
51 *276:53 *407:311 0.000351688
52 *276:53 *408:216 0.000115013
53 *276:61 *278:47 0
54 *276:61 *436:92 3.56537e-05
55 *276:61 *436:100 0.00043937
56 *276:67 *436:100 4.18605e-05
57 *276:67 *436:104 9.84851e-05
58 *276:86 *1840:A0 6.22448e-06
59 *276:86 *1866:A1 0.000181794
60 *276:86 *366:25 8.62783e-05
61 *276:86 *427:10 0.000195248
62 *276:86 *427:94 3.83059e-05
63 *276:86 *436:129 0.000133076
64 *276:86 *453:90 0
65 *276:117 *1642:A0 0.000102906
66 *276:117 *1642:A1 0.00012837
67 *276:117 *1838:A1 4.08537e-05
68 *276:117 *1861:A0 0
69 *276:117 *1865:A0 6.68587e-05
70 *276:117 *380:27 0
71 *276:117 *408:207 0
72 *276:117 *408:216 0
73 *276:117 *429:84 1.02387e-05
74 *276:117 *429:99 0.000136718
75 *276:117 *429:121 0
76 *276:123 *1865:A0 1.83667e-05
77 *276:123 *408:207 0
78 *276:143 *1728:S0 0.000393287
79 *276:143 *407:423 2.33479e-05
80 *276:143 *408:142 0
81 *276:143 *409:98 0.000555024
82 *276:143 *430:75 2.64616e-05
83 *1643:A1 *276:117 0.000462809
84 *1843:S *276:35 0.000185428
85 *1973:D *276:53 0.000389308
86 *1993:D *276:53 8.04002e-05
87 *2037:D *276:22 2.54551e-05
88 *2039:D *276:53 4.72035e-05
89 *116:16 *276:35 2.07355e-05
90 *116:16 *276:53 0
91 *130:8 *276:61 0.000114083
92 *132:8 *276:16 9.03784e-05
93 *134:8 *1863:S 3.72639e-05
94 *134:8 *276:53 4.78793e-05
95 *136:8 *276:117 0
96 *181:14 *276:123 0
97 *268:27 *276:12 0.00024222
98 *268:27 *276:16 1.37246e-05
99 *273:46 *1863:S 1.7992e-05
100 *273:46 *276:53 9.20311e-06
101 *273:67 *1862:S 0.000105062
102 *273:84 *1862:S 5.08899e-05
103 *273:84 *276:86 0.000516216
104 *274:10 *276:16 5.61714e-05
105 *275:30 *276:143 0
106 *275:131 *276:61 0
*RES
1 *1859:X *276:12 42.3293 
2 *276:12 *276:16 30.2871 
3 *276:16 *276:22 19.6814 
4 *276:22 *1861:S 38.8493 
5 *276:22 *276:35 23.7207 
6 *276:35 *276:39 20.3857 
7 *276:39 *276:53 47.045 
8 *276:53 *276:61 37.5193 
9 *276:61 *276:67 17.5479 
10 *276:67 *1862:S 43.4271 
11 *276:67 *276:86 29.5829 
12 *276:86 *1866:S 23 
13 *276:61 *1867:S 23 
14 *276:39 *1863:S 45.0014 
15 *276:35 *276:117 32.7521 
16 *276:117 *276:123 36.0871 
17 *276:123 *1864:S 23 
18 *276:117 *1865:S 38 
19 *276:16 *276:143 45.3079 
20 *276:143 *1860:S 23 
*END

*D_NET *277 0.0326279
*CONN
*I *1870:S I *D sky130_fd_sc_hd__mux2_1
*I *1869:S I *D sky130_fd_sc_hd__mux2_1
*I *1873:S I *D sky130_fd_sc_hd__mux2_1
*I *1874:S I *D sky130_fd_sc_hd__mux2_1
*I *1872:S I *D sky130_fd_sc_hd__mux2_1
*I *1875:S I *D sky130_fd_sc_hd__mux2_1
*I *1876:S I *D sky130_fd_sc_hd__mux2_1
*I *1871:S I *D sky130_fd_sc_hd__mux2_1
*I *1868:Y O *D sky130_fd_sc_hd__nand4b_4
*CAP
1 *1870:S 0.000381489
2 *1869:S 0
3 *1873:S 0.00074357
4 *1874:S 0
5 *1872:S 4.9166e-05
6 *1875:S 0
7 *1876:S 0
8 *1871:S 0
9 *1868:Y 0
10 *277:102 0.00130769
11 *277:100 0.00108743
12 *277:92 0.00156861
13 *277:86 0.00214471
14 *277:60 0.000455372
15 *277:42 0.0015172
16 *277:38 0.00187878
17 *277:30 0.00201567
18 *277:26 0.00170872
19 *277:18 0.000702604
20 *277:14 0.00175712
21 *277:4 0.00233161
22 *1870:S *1870:A1 1.05235e-05
23 *1870:S *408:134 6.17437e-06
24 *1870:S *452:54 0.000148698
25 *1872:S *454:89 1.38697e-05
26 *1873:S *1873:A1 5.41288e-05
27 *1873:S *1874:A0 1.39431e-05
28 *1873:S *1874:A1 1.57571e-05
29 *1873:S *278:118 0.000747093
30 *1873:S *356:14 9.84851e-05
31 *1873:S *456:18 0.00024362
32 *1873:S *456:195 9.93521e-05
33 *1873:S *456:202 0.000196001
34 *277:14 *282:10 0.000141879
35 *277:18 *1872:A1 4.96717e-05
36 *277:18 *454:89 2.80924e-06
37 *277:26 *278:22 8.62783e-05
38 *277:26 *454:89 1.28604e-05
39 *277:30 *2063:CLK 0.000149834
40 *277:30 *278:22 1.59094e-05
41 *277:30 *346:14 2.13733e-05
42 *277:38 *407:373 2.97713e-05
43 *277:38 *408:249 0
44 *277:38 *416:39 0.000139346
45 *277:38 *436:75 0.000135271
46 *277:42 *1657:A0 0.000242108
47 *277:42 *1657:A3 8.30566e-06
48 *277:42 *1831:A0 8.62876e-05
49 *277:42 *342:25 0.000141879
50 *277:42 *407:295 0.000152057
51 *277:42 *407:311 9.41556e-05
52 *277:42 *416:28 0.000222113
53 *277:42 *416:43 0
54 *277:60 *1875:A0 0.00014196
55 *277:60 *1875:A1 2.4754e-05
56 *277:60 *349:27 3.3123e-05
57 *277:60 *408:249 0
58 *277:60 *436:75 0.000294776
59 *277:86 *1868:B 0.000132665
60 *277:86 *409:90 0
61 *277:86 *409:98 0.000325715
62 *277:86 *411:43 1.34354e-05
63 *277:86 *450:61 6.48142e-05
64 *277:92 *1728:A2 5.97612e-05
65 *277:92 *1869:A1 4.56219e-05
66 *277:92 *1887:A0 0.000108662
67 *277:92 *408:134 0.00019747
68 *277:92 *408:355 6.17437e-06
69 *277:92 *409:98 2.61699e-05
70 *277:92 *430:8 0.000212723
71 *277:92 *430:14 0.000345519
72 *277:92 *430:67 0.000175356
73 *277:100 *1869:A0 0.000223698
74 *277:100 *1869:A1 3.71251e-05
75 *277:100 *1986:CLK 0.000222113
76 *277:100 *343:12 0.000216721
77 *277:100 *408:148 5.41385e-05
78 *277:100 *408:355 0.000141154
79 *277:100 *430:32 0.000182863
80 *277:100 *451:18 0
81 *277:100 *451:29 1.12487e-05
82 *277:100 *451:44 9.52274e-05
83 *277:100 *451:55 6.79006e-05
84 *277:100 *451:66 1.83667e-05
85 *277:102 *1874:A1 6.17437e-06
86 *1850:D *277:86 8.51432e-05
87 *1992:D *277:30 3.32868e-05
88 *2063:D *277:30 5.6508e-05
89 *87:8 *277:42 0
90 *119:10 *277:42 0.000111253
91 *124:8 *277:92 0.000635259
92 *128:10 *1873:S 3.22879e-05
93 *139:10 *277:100 0.000104531
94 *142:10 *277:14 0.000164337
95 *144:10 *1873:S 5.67058e-05
96 *145:8 *277:60 0.000114092
97 *176:12 *277:26 2.01531e-05
98 *189:14 *277:60 0.000111148
99 *237:14 *277:92 0.000396518
100 *253:10 *277:60 0
101 *258:10 *277:14 1.01436e-05
102 *259:12 *277:14 0.00040174
103 *262:81 *277:60 0.000128401
104 *269:101 *1872:S 0
105 *271:19 *277:86 4.08537e-05
106 *272:8 *277:86 1.12487e-05
107 *272:14 *277:86 0.000238309
108 *272:64 *277:14 0.00145578
109 *272:64 *277:86 0.000293906
110 *272:74 *277:14 0.000481937
111 *272:84 *277:26 0.00056367
112 *275:16 *277:86 5.80963e-05
113 *275:16 *277:92 5.71732e-05
114 *275:30 *277:100 0.000189846
115 *275:111 *277:26 1.01436e-05
116 *275:119 *277:30 0.000161905
117 *275:131 *277:42 8.87584e-05
*RES
1 *1868:Y *277:4 23 
2 *277:4 *277:14 43.13 
3 *277:14 *277:18 16.9212 
4 *277:18 *277:26 38.1459 
5 *277:26 *277:30 31.3436 
6 *277:30 *277:38 21.7943 
7 *277:38 *277:42 45.7814 
8 *277:42 *1871:S 38 
9 *277:38 *1876:S 23 
10 *277:30 *277:60 27.18 
11 *277:60 *1875:S 23 
12 *277:18 *1872:S 24.4862 
13 *277:4 *277:86 31.4886 
14 *277:86 *277:92 45.2429 
15 *277:92 *277:100 45.37 
16 *277:100 *277:102 10.15 
17 *277:102 *1874:S 23 
18 *277:102 *1873:S 44.2943 
19 *277:92 *1869:S 23 
20 *277:86 *1870:S 44.5043 
*END

*D_NET *278 0.0321484
*CONN
*I *1887:S I *D sky130_fd_sc_hd__mux2_1
*I *1886:S I *D sky130_fd_sc_hd__mux2_1
*I *1891:S I *D sky130_fd_sc_hd__mux2_1
*I *1890:S I *D sky130_fd_sc_hd__mux2_1
*I *1892:S I *D sky130_fd_sc_hd__mux2_1
*I *1893:S I *D sky130_fd_sc_hd__mux2_1
*I *1888:S I *D sky130_fd_sc_hd__mux2_1
*I *1889:S I *D sky130_fd_sc_hd__mux2_1
*I *1885:X O *D sky130_fd_sc_hd__and4b_4
*CAP
1 *1887:S 0.000248759
2 *1886:S 2.34823e-05
3 *1891:S 0.000212217
4 *1890:S 0
5 *1892:S 0.000155793
6 *1893:S 5.13579e-05
7 *1888:S 0
8 *1889:S 2.69248e-05
9 *1885:X 0.000247278
10 *278:118 0.000709029
11 *278:110 0.00192808
12 *278:102 0.00104254
13 *278:98 0.000918119
14 *278:94 0.00124435
15 *278:88 0.00107347
16 *278:47 0.00137852
17 *278:41 0.0015492
18 *278:37 0.00192605
19 *278:22 0.00320652
20 *278:12 0.00251243
21 *278:10 0.000247278
22 *1887:S *1852:A0 2.18409e-05
23 *1887:S *452:89 0.000223672
24 *1889:S *346:14 7.57281e-06
25 *1891:S *1891:A0 9.88574e-06
26 *1891:S *1891:A1 5.50106e-05
27 *1891:S *429:46 9.27917e-05
28 *1891:S *456:22 0.000342403
29 *1892:S *1892:A0 7.43025e-06
30 *1892:S *1892:A1 5.50106e-05
31 *1892:S *457:52 0.000143401
32 *1893:S *350:14 5.12254e-05
33 *278:10 *1885:C 0.000139357
34 *278:10 *411:70 2.32101e-05
35 *278:10 *411:74 0.000137651
36 *278:10 *450:18 0.000289964
37 *278:10 *450:22 0.000114083
38 *278:10 *450:96 0.000132665
39 *278:10 *450:107 2.55642e-05
40 *278:10 *451:111 0.000564507
41 *278:22 *282:10 0.000175718
42 *278:22 *346:14 0.000234413
43 *278:22 *346:29 0.000383463
44 *278:22 *450:32 7.92108e-05
45 *278:41 *1866:A1 0.000167452
46 *278:41 *350:14 3.0647e-05
47 *278:41 *436:92 0
48 *278:41 *453:90 0
49 *278:41 *457:52 7.8712e-05
50 *278:47 *1866:A1 0.000185434
51 *278:47 *342:12 0
52 *278:47 *350:14 6.17437e-06
53 *278:47 *408:269 0.000291113
54 *278:47 *419:12 0.000169683
55 *278:47 *419:100 0.000216051
56 *278:47 *419:113 0.000210659
57 *278:47 *436:92 0
58 *278:47 *453:51 0
59 *278:47 *453:90 0
60 *278:88 *1804:B 9.67842e-05
61 *278:88 *407:437 0.000135547
62 *278:88 *430:75 0.000191148
63 *278:88 *450:32 1.40958e-05
64 *278:88 *450:39 2.43944e-05
65 *278:88 *452:32 0.000419283
66 *278:88 *452:46 6.16439e-05
67 *278:94 *452:89 0.000139357
68 *278:98 *367:25 0.000134585
69 *278:98 *407:437 0
70 *278:98 *407:523 0.00113903
71 *278:98 *407:546 2.31209e-05
72 *278:98 *451:18 1.58805e-05
73 *278:98 *451:29 5.21127e-05
74 *278:98 *451:44 0.000157352
75 *278:98 *451:55 6.57448e-05
76 *278:98 *451:66 0.000218583
77 *278:98 *451:75 9.79539e-05
78 *278:102 *451:29 5.50049e-05
79 *278:110 *284:10 5.41288e-05
80 *278:110 *343:12 2.32004e-05
81 *278:110 *451:29 5.50106e-05
82 *278:118 *1873:A0 0.000255074
83 *278:118 *1873:A1 3.53115e-05
84 *278:118 *356:14 0
85 *278:118 *456:18 9.24795e-06
86 *278:118 *456:22 0.000225275
87 *1873:S *278:118 0.000747093
88 *1989:D *278:22 1.74843e-05
89 *1991:D *278:110 0.000275729
90 *119:10 *278:47 0
91 *128:10 *1891:S 0.000164291
92 *128:10 *278:118 0.00019747
93 *130:8 *278:47 0
94 *133:10 *278:47 0.00025791
95 *155:8 *278:98 0
96 *162:8 *278:47 0.000194318
97 *176:12 *278:22 0
98 *251:14 *278:47 0.00012477
99 *252:8 *278:47 8.62783e-05
100 *272:31 *278:102 1.76557e-05
101 *272:31 *278:110 0.000261215
102 *273:27 *278:88 0.000372221
103 *273:27 *278:98 1.14452e-05
104 *273:67 *278:47 0
105 *274:20 *278:88 0
106 *274:127 *278:98 0.000851301
107 *275:30 *1887:S 0.000183733
108 *275:107 *278:22 0.000464523
109 *275:111 *278:22 4.07715e-05
110 *275:119 *1892:S 3.7122e-06
111 *275:131 *1892:S 7.04362e-05
112 *275:131 *278:41 5.70718e-05
113 *276:16 *278:88 0.000580536
114 *276:61 *278:47 0
115 *277:26 *278:22 8.62783e-05
116 *277:30 *278:22 1.59094e-05
*RES
1 *1885:X *278:10 47.5907 
2 *278:10 *278:12 15 
3 *278:12 *278:22 43.2232 
4 *278:22 *1889:S 38.3211 
5 *278:22 *278:37 19.8341 
6 *278:37 *278:41 18.4904 
7 *278:41 *278:47 48.3086 
8 *278:47 *1888:S 38 
9 *278:41 *1893:S 24.0979 
10 *278:37 *1892:S 41.6768 
11 *278:12 *278:88 36.8121 
12 *278:88 *278:94 17.0714 
13 *278:94 *278:98 42.9643 
14 *278:98 *278:102 15.6214 
15 *278:102 *278:110 35.3207 
16 *278:110 *278:118 32.8971 
17 *278:118 *1890:S 23 
18 *278:110 *1891:S 44.3179 
19 *278:102 *1886:S 23.4971 
20 *278:94 *1887:S 28.3857 
*END

*D_NET *279 0.00152906
*CONN
*I *1720:A0 I *D sky130_fd_sc_hd__mux4_1
*I *1824:A0 I *D sky130_fd_sc_hd__mux2_1
*I *1986:Q O *D sky130_fd_sc_hd__dfxtp_1
*CAP
1 *1720:A0 0.000185806
2 *1824:A0 0
3 *1986:Q 0.000359731
4 *279:10 0.000545538
5 *1720:A0 *335:10 0.000277705
6 *279:10 *335:10 8.62876e-05
7 *1986:D *279:10 3.7122e-06
8 *99:8 *279:10 0
9 *237:14 *1720:A0 0
10 *272:31 *279:10 7.02841e-05
*RES
1 *1986:Q *279:10 44.0693 
2 *279:10 *1824:A0 38 
3 *279:10 *1720:A0 42.2879 
*END

*D_NET *280 0.00194872
*CONN
*I *1825:A0 I *D sky130_fd_sc_hd__mux2_1
*I *1728:A0 I *D sky130_fd_sc_hd__mux4_1
*I *1987:Q O *D sky130_fd_sc_hd__dfxtp_1
*CAP
1 *1825:A0 0.00032686
2 *1728:A0 1.537e-05
3 *1987:Q 0.000133318
4 *280:8 0.000475549
5 *1728:A0 *1870:A1 3.31127e-05
6 *1825:A0 *1870:A1 3.83778e-05
7 *1825:A0 *1987:CLK 0
8 *1825:A0 *2045:CLK 6.7177e-06
9 *1825:A0 *2085:A 4.79641e-05
10 *1825:A0 *431:70 0.000185428
11 *1825:A0 *432:10 0
12 *100:8 *1825:A0 1.21972e-05
13 *272:23 *1825:A0 0.000269775
14 *272:25 *1728:A0 6.70363e-05
15 *272:25 *1825:A0 0.000337011
*RES
1 *1987:Q *280:8 39.5743 
2 *280:8 *1728:A0 38.8493 
3 *280:8 *1825:A0 46.555 
*END

*D_NET *281 0.00140908
*CONN
*I *1736:A0 I *D sky130_fd_sc_hd__mux4_1
*I *1826:A0 I *D sky130_fd_sc_hd__mux2_1
*I *1988:Q O *D sky130_fd_sc_hd__dfxtp_1
*CAP
1 *1736:A0 0.000285473
2 *1826:A0 0.0002675
3 *1988:Q 0
4 *281:6 0.000552973
5 *1736:A0 *337:10 0
6 *1826:A0 *453:14 5.67058e-05
7 *1826:A0 *455:14 7.27182e-05
8 *1826:A0 *456:10 2.9938e-05
9 *2113:A *1826:A0 5.50049e-05
10 *101:8 *1826:A0 0
11 *272:109 *1736:A0 0
12 *272:109 *1826:A0 8.87659e-05
*RES
1 *1988:Q *281:6 38 
2 *281:6 *1826:A0 44.0693 
3 *281:6 *1736:A0 42.7229 
*END

*D_NET *282 0.0021696
*CONN
*I *1744:A0 I *D sky130_fd_sc_hd__mux4_1
*I *1827:A0 I *D sky130_fd_sc_hd__mux2_1
*I *1989:Q O *D sky130_fd_sc_hd__dfxtp_1
*CAP
1 *1744:A0 0
2 *1827:A0 0.000166259
3 *1989:Q 0.000428676
4 *282:14 0.000229565
5 *282:10 0.000491982
6 *282:10 *346:29 9.58714e-05
7 *102:10 *1827:A0 0.000137651
8 *142:10 *282:10 0.000139647
9 *272:74 *1827:A0 0.000112685
10 *272:74 *282:14 4.96717e-05
11 *277:14 *282:10 0.000141879
12 *278:22 *282:10 0.000175718
*RES
1 *1989:Q *282:10 44.815 
2 *282:10 *282:14 16.0979 
3 *282:14 *1827:A0 26.9771 
4 *282:14 *1744:A0 23 
*END

*D_NET *283 0.000810814
*CONN
*I *1828:A0 I *D sky130_fd_sc_hd__mux2_1
*I *1633:A0 I *D sky130_fd_sc_hd__mux4_1
*I *1990:Q O *D sky130_fd_sc_hd__dfxtp_1
*CAP
1 *1828:A0 0.000122109
2 *1633:A0 2.95011e-05
3 *1990:Q 0.000132829
4 *283:10 0.00028444
5 *1633:A0 *1633:A1 5.50106e-05
6 *1828:A0 *1633:A1 2.55642e-05
7 *283:10 *1633:A1 0.000141879
8 *283:10 *2024:CLK 1.94812e-05
9 *103:8 *1828:A0 0
10 *160:8 *283:10 0
*RES
1 *1990:Q *283:10 40.5271 
2 *283:10 *1633:A0 38.6214 
3 *283:10 *1828:A0 40.2579 
*END

*D_NET *284 0.000910376
*CONN
*I *1641:A0 I *D sky130_fd_sc_hd__mux4_1
*I *1829:A0 I *D sky130_fd_sc_hd__mux2_1
*I *1991:Q O *D sky130_fd_sc_hd__dfxtp_1
*CAP
1 *1641:A0 0.000138064
2 *1829:A0 0
3 *1991:Q 0.00014452
4 *284:10 0.000282584
5 *1641:A0 *1641:A1 6.22475e-05
6 *1641:A0 *1874:A1 4.7869e-05
7 *284:10 *1874:A1 6.68793e-05
8 *284:10 *456:210 0.000114083
9 *181:14 *1641:A0 0
10 *278:110 *284:10 5.41288e-05
*RES
1 *1991:Q *284:10 41.0036 
2 *284:10 *1829:A0 38 
3 *284:10 *1641:A0 40.9621 
*END

*D_NET *285 0.00263665
*CONN
*I *1649:A0 I *D sky130_fd_sc_hd__mux4_1
*I *1830:A0 I *D sky130_fd_sc_hd__mux2_1
*I *1992:Q O *D sky130_fd_sc_hd__dfxtp_1
*CAP
1 *1649:A0 6.50786e-05
2 *1830:A0 0.000335245
3 *1992:Q 0.000153354
4 *285:8 0.000553678
5 *1649:A0 *1892:A0 7.39034e-05
6 *1649:A0 *349:8 6.48142e-05
7 *1649:A0 *357:8 6.6869e-05
8 *1830:A0 *1830:A1 0.000522803
9 *1830:A0 *1892:A0 1.01436e-05
10 *1830:A0 *357:8 0.000108662
11 *1830:A0 *416:22 2.01312e-05
12 *1830:S *1830:A0 9.75779e-05
13 *1857:S *1830:A0 1.12487e-05
14 *269:101 *1830:A0 0.0002438
15 *275:119 *285:8 0.000178517
16 *275:131 *1830:A0 0.000130826
*RES
1 *1992:Q *285:8 40.0507 
2 *285:8 *1830:A0 48.3571 
3 *285:8 *1649:A0 39.9057 
*END

*D_NET *286 0.0022513
*CONN
*I *1657:A0 I *D sky130_fd_sc_hd__mux4_1
*I *1831:A0 I *D sky130_fd_sc_hd__mux2_1
*I *1993:Q O *D sky130_fd_sc_hd__dfxtp_1
*CAP
1 *1657:A0 0.000170692
2 *1831:A0 0.000344349
3 *1993:Q 0
4 *286:6 0.000515042
5 *1657:A0 *1657:A3 0.000162747
6 *1657:A0 *1858:A1 0.000132665
7 *1831:A0 *1831:A1 0.000399297
8 *1831:A0 *1858:A1 8.62876e-05
9 *1831:S *1831:A0 1.76557e-05
10 *196:8 *1657:A0 9.41704e-05
11 *277:42 *1657:A0 0.000242108
12 *277:42 *1831:A0 8.62876e-05
*RES
1 *1993:Q *286:6 38 
2 *286:6 *1831:A0 44.1107 
3 *286:6 *1657:A0 42.9093 
*END

*D_NET *287 0.0027406
*CONN
*I *1716:A2 I *D sky130_fd_sc_hd__mux4_1
*I *1795:A0 I *D sky130_fd_sc_hd__mux2_1
*I *1962:Q O *D sky130_fd_sc_hd__dfxtp_1
*CAP
1 *1716:A2 0
2 *1795:A0 0
3 *1962:Q 0
4 *287:27 0.000711183
5 *287:12 0.000368804
6 *287:4 0.00107999
7 *287:12 *1639:S0 2.73039e-05
8 *287:27 *1639:S0 4.09244e-05
9 *287:27 *1716:A0 5.41288e-05
10 *287:27 *1716:A3 4.67488e-05
11 *287:27 *1716:S0 9.5877e-05
12 *287:27 *407:248 1.18735e-05
13 *287:27 *411:111 6.25829e-05
14 *287:27 *416:96 6.25829e-05
15 *260:10 *287:12 0.000137995
16 *267:10 *287:12 0
17 *267:56 *287:12 4.06039e-05
*RES
1 *1962:Q *287:4 23 
2 *287:4 *287:12 36.5457 
3 *287:12 *1795:A0 23 
4 *287:4 *287:27 39.8445 
5 *287:27 *1716:A2 23 
*END

*D_NET *288 0.00250676
*CONN
*I *1796:A0 I *D sky130_fd_sc_hd__mux2_1
*I *1726:A2 I *D sky130_fd_sc_hd__mux4_1
*I *1963:Q O *D sky130_fd_sc_hd__dfxtp_1
*CAP
1 *1796:A0 0.000318535
2 *1726:A2 0
3 *1963:Q 0
4 *288:12 0.000497033
5 *288:6 0.000815568
6 *1796:A0 *425:84 0
7 *288:12 *408:30 1.70074e-05
8 *288:12 *425:107 0
9 *1796:S *1796:A0 0.00014196
10 *76:8 *1796:A0 0.000166513
11 *242:8 *288:12 0.00013652
12 *266:31 *288:12 0.000413622
*RES
1 *1963:Q *288:6 38 
2 *288:6 *288:12 27.1696 
3 *288:12 *1726:A2 23 
4 *288:6 *1796:A0 44.2143 
*END

*D_NET *289 0.00273456
*CONN
*I *1732:A2 I *D sky130_fd_sc_hd__mux4_1
*I *1797:A0 I *D sky130_fd_sc_hd__mux2_1
*I *1964:Q O *D sky130_fd_sc_hd__dfxtp_1
*CAP
1 *1732:A2 0
2 *1797:A0 0
3 *1964:Q 0
4 *289:27 0.00051129
5 *289:12 0.000273911
6 *289:4 0.0007852
7 *289:12 *1732:A3 1.94812e-05
8 *289:12 *453:143 0.000301409
9 *289:27 *1732:A3 0.000121899
10 *289:27 *1732:S0 5.74491e-05
11 *289:27 *393:27 1.36592e-05
12 *289:27 *401:26 0.000223692
13 *289:27 *408:443 6.25829e-05
14 *37:8 *289:27 6.48142e-05
15 *266:83 *289:12 0.000299169
*RES
1 *1964:Q *289:4 23 
2 *289:4 *289:12 36.0693 
3 *289:12 *1797:A0 23 
4 *289:4 *289:27 38.0475 
5 *289:27 *1732:A2 23 
*END

*D_NET *290 0.0020377
*CONN
*I *1740:A2 I *D sky130_fd_sc_hd__mux4_1
*I *1798:A0 I *D sky130_fd_sc_hd__mux2_1
*I *1965:Q O *D sky130_fd_sc_hd__dfxtp_1
*CAP
1 *1740:A2 0
2 *1798:A0 0
3 *1965:Q 0
4 *290:29 0.000594271
5 *290:12 0.000267778
6 *290:4 0.000862049
7 *290:12 *1957:CLK 0
8 *290:12 *394:12 0
9 *290:12 *407:167 0
10 *290:12 *421:10 0
11 *290:29 *1817:A0 2.13054e-05
12 *290:29 *1817:A1 7.88926e-05
13 *290:29 *1897:CLK 0
14 *290:29 *394:6 1.55622e-05
15 *290:29 *454:12 2.22183e-05
16 *290:29 *454:14 2.29192e-05
17 *78:10 *290:12 0
18 *266:35 *290:29 1.01712e-05
19 *267:85 *290:12 0.000142538
*RES
1 *1965:Q *290:4 23 
2 *290:4 *290:12 34.64 
3 *290:12 *1798:A0 23 
4 *290:4 *290:29 38.6637 
5 *290:29 *1740:A2 23 
*END

*D_NET *291 0.00334381
*CONN
*I *1631:A2 I *D sky130_fd_sc_hd__mux4_1
*I *1799:A0 I *D sky130_fd_sc_hd__mux2_1
*I *1966:Q O *D sky130_fd_sc_hd__dfxtp_1
*CAP
1 *1631:A2 0
2 *1799:A0 0
3 *1966:Q 0
4 *291:29 0.000669477
5 *291:12 0.000586277
6 *291:4 0.00125575
7 *291:12 *1966:CLK 0.0002263
8 *291:29 *299:27 2.81066e-05
9 *291:29 *395:10 0.00010018
10 *291:29 *407:71 2.73537e-05
11 *291:29 *407:75 4.96717e-05
12 *291:29 *407:89 0.000191429
13 *79:10 *291:12 4.08641e-05
14 *262:115 *291:29 0.000168394
*RES
1 *1966:Q *291:4 23 
2 *291:4 *291:12 38.0164 
3 *291:12 *1799:A0 23 
4 *291:4 *291:29 42.5788 
5 *291:29 *1631:A2 23 
*END

*D_NET *292 0.00171376
*CONN
*I *1637:A2 I *D sky130_fd_sc_hd__mux4_1
*I *1800:A0 I *D sky130_fd_sc_hd__mux2_1
*I *1967:Q O *D sky130_fd_sc_hd__dfxtp_1
*CAP
1 *1637:A2 0
2 *1800:A0 0
3 *1967:Q 0
4 *292:27 0.000551108
5 *292:12 0.000197207
6 *292:4 0.000748315
7 *292:12 *300:8 0
8 *292:27 *1637:A0 9.6831e-05
9 *292:27 *1637:A1 2.82811e-05
10 *292:27 *300:27 6.38342e-05
11 *292:27 *408:443 2.8183e-05
12 *80:8 *292:12 0
*RES
1 *1967:Q *292:4 23 
2 *292:4 *292:12 32.7757 
3 *292:12 *1800:A0 23 
4 *292:4 *292:27 37.9388 
5 *292:27 *1637:A2 23 
*END

*D_NET *293 0.00162877
*CONN
*I *1647:A2 I *D sky130_fd_sc_hd__mux4_1
*I *1801:A0 I *D sky130_fd_sc_hd__mux2_1
*I *1968:Q O *D sky130_fd_sc_hd__dfxtp_1
*CAP
1 *1647:A2 0.000238142
2 *1801:A0 0
3 *1968:Q 0
4 *293:12 0.000320322
5 *293:4 0.000558464
6 *1647:A2 *1647:A3 0.000190286
7 *293:12 *421:33 8.62876e-05
8 *73:8 *293:12 0
9 *186:10 *1647:A2 0.000144554
10 *267:87 *293:12 6.53011e-05
11 *267:89 *293:12 2.54193e-05
*RES
1 *1968:Q *293:4 23 
2 *293:4 *293:12 34.6814 
3 *293:12 *1801:A0 23 
4 *293:4 *1647:A2 29.3489 
*END

*D_NET *294 0.00203387
*CONN
*I *1653:A2 I *D sky130_fd_sc_hd__mux4_1
*I *1802:A0 I *D sky130_fd_sc_hd__mux2_1
*I *1969:Q O *D sky130_fd_sc_hd__dfxtp_1
*CAP
1 *1653:A2 0
2 *1802:A0 0
3 *1969:Q 0
4 *294:27 0.000518452
5 *294:12 0.000236939
6 *294:4 0.000755391
7 *294:12 *1802:A1 2.93845e-05
8 *294:27 *1802:A1 0
9 *294:27 *302:29 0
10 *294:27 *398:12 1.14452e-05
11 *294:27 *406:21 0.000114664
12 *294:27 *407:128 0.000106184
13 *294:27 *436:21 0
14 *294:27 *436:25 0.000153145
15 *42:10 *294:27 0
16 *267:89 *294:12 5.41288e-05
17 *267:95 *294:12 5.41385e-05
*RES
1 *1969:Q *294:4 23 
2 *294:4 *294:12 34.6607 
3 *294:12 *1802:A0 23 
4 *294:4 *294:27 40.7559 
5 *294:27 *1653:A2 23 
*END

*D_NET *295 0.00256358
*CONN
*I *1716:A3 I *D sky130_fd_sc_hd__mux4_1
*I *1786:A1 I *D sky130_fd_sc_hd__mux2_1
*I *1954:Q O *D sky130_fd_sc_hd__dfxtp_1
*CAP
1 *1716:A3 0.000175299
2 *1786:A1 0.000142983
3 *1954:Q 0.00018698
4 *295:8 0.000505261
5 *1716:A3 *407:248 2.81066e-05
6 *1716:A3 *447:10 0.00026599
7 *1716:A3 *451:141 0.000129024
8 *1786:A1 *407:265 1.69668e-05
9 *1786:A1 *416:92 0.000123239
10 *1786:A1 *416:96 6.85339e-05
11 *1786:A1 *447:10 3.70094e-05
12 *1786:A1 *451:115 1.72202e-05
13 *1786:A1 *451:119 2.93845e-05
14 *1786:A1 *451:141 2.35393e-05
15 *295:8 *411:134 5.50106e-05
16 *1786:S *1786:A1 5.50049e-05
17 *1794:D *295:8 7.47667e-05
18 *1954:D *295:8 5.41288e-05
19 *265:26 *1786:A1 8.4047e-05
20 *265:26 *295:8 0.000435849
21 *267:10 *295:8 8.48502e-06
22 *287:27 *1716:A3 4.67488e-05
*RES
1 *1954:Q *295:8 43.3857 
2 *295:8 *1786:A1 42.1843 
3 *295:8 *1716:A3 42.7643 
*END

*D_NET *296 0.00101785
*CONN
*I *1787:A1 I *D sky130_fd_sc_hd__mux2_1
*I *1726:A3 I *D sky130_fd_sc_hd__mux4_1
*I *1955:Q O *D sky130_fd_sc_hd__dfxtp_1
*CAP
1 *1787:A1 0
2 *1726:A3 0
3 *1955:Q 0.000222807
4 *296:12 5.92565e-05
5 *296:6 0.000282064
6 *296:6 *1787:A0 2.64616e-05
7 *296:6 *1815:A1 6.17437e-06
8 *296:12 *408:30 6.07611e-06
9 *296:12 *408:45 0.000112538
10 *296:12 *452:14 0.000138718
11 *1787:S *296:6 2.44078e-05
12 *270:149 *296:6 0.000139352
*RES
1 *1955:Q *296:6 26.0036 
2 *296:6 *296:12 31.9057 
3 *296:12 *1726:A3 23 
4 *296:6 *1787:A1 23 
*END

*D_NET *297 0.00172591
*CONN
*I *1788:A1 I *D sky130_fd_sc_hd__mux2_1
*I *1732:A3 I *D sky130_fd_sc_hd__mux4_1
*I *1956:Q O *D sky130_fd_sc_hd__dfxtp_1
*CAP
1 *1788:A1 0.000117091
2 *1732:A3 0.000258445
3 *1956:Q 0.000119856
4 *297:8 0.000495392
5 *1732:A3 *1732:S0 5.56356e-05
6 *1732:A3 *393:27 0.00013395
7 *1732:A3 *401:26 0.000169679
8 *1788:A1 *401:10 4.3407e-05
9 *297:8 *393:10 0
10 *297:8 *401:10 1.19692e-05
11 *1788:S *1788:A1 1.94693e-05
12 *266:83 *1788:A1 6.42902e-05
13 *266:83 *297:8 9.53499e-05
14 *289:12 *1732:A3 1.94812e-05
15 *289:27 *1732:A3 0.000121899
*RES
1 *1956:Q *297:8 40.61 
2 *297:8 *1732:A3 44.9807 
3 *297:8 *1788:A1 40.5271 
*END

*D_NET *298 0.00189804
*CONN
*I *1740:A3 I *D sky130_fd_sc_hd__mux4_1
*I *1789:A1 I *D sky130_fd_sc_hd__mux2_1
*I *1957:Q O *D sky130_fd_sc_hd__dfxtp_1
*CAP
1 *1740:A3 0
2 *1789:A1 0
3 *1957:Q 0
4 *298:27 0.000269606
5 *298:12 0.000377349
6 *298:4 0.000646955
7 *298:12 *1740:A1 0
8 *298:12 *1753:A1 2.18506e-05
9 *298:12 *1957:CLK 0
10 *298:27 *1897:CLK 0
11 *298:27 *454:12 0.000136486
12 *70:10 *298:12 0
13 *262:51 *298:12 6.51763e-05
14 *266:35 *298:27 5.41385e-05
15 *270:113 *298:12 0.000143655
16 *270:113 *298:27 0.00018282
*RES
1 *1957:Q *298:4 23 
2 *298:4 *298:12 35.8621 
3 *298:12 *1789:A1 23 
4 *298:4 *298:27 35.0543 
5 *298:27 *1740:A3 23 
*END

*D_NET *299 0.00314262
*CONN
*I *1631:A3 I *D sky130_fd_sc_hd__mux4_1
*I *1790:A1 I *D sky130_fd_sc_hd__mux2_1
*I *1958:Q O *D sky130_fd_sc_hd__dfxtp_1
*CAP
1 *1631:A3 0
2 *1790:A1 0.000120198
3 *1958:Q 0.000134948
4 *299:27 0.000727194
5 *299:10 0.000982341
6 *1790:A1 *1790:A0 0.000357
7 *299:10 *1790:A0 2.55642e-05
8 *299:10 *455:175 0.000208261
9 *299:27 *403:8 4.06849e-05
10 *299:27 *407:75 2.92911e-06
11 *1898:D *299:27 9.91895e-05
12 *95:10 *299:27 6.48142e-05
13 *262:115 *299:27 6.48142e-05
14 *266:71 *1790:A1 0.000171828
15 *266:71 *299:10 0.000108672
16 *266:73 *1790:A1 6.07611e-06
17 *291:29 *299:27 2.81066e-05
*RES
1 *1958:Q *299:10 41.5836 
2 *299:10 *1790:A1 42.7229 
3 *299:10 *299:27 40.0464 
4 *299:27 *1631:A3 38 
*END

*D_NET *300 0.00325025
*CONN
*I *1637:A3 I *D sky130_fd_sc_hd__mux4_1
*I *1791:A1 I *D sky130_fd_sc_hd__mux2_1
*I *1959:Q O *D sky130_fd_sc_hd__dfxtp_1
*CAP
1 *1637:A3 0
2 *1791:A1 0.000291677
3 *1959:Q 0.00030513
4 *300:27 0.000491612
5 *300:10 0.000783289
6 *300:8 0.00030513
7 *1791:A1 *1791:A0 0.000447976
8 *1791:A1 *456:134 0.000128723
9 *300:8 *396:14 0
10 *300:8 *407:97 0
11 *300:27 *1819:A0 0.000159389
12 *300:27 *408:443 1.63467e-05
13 *300:27 *456:134 0.000232389
14 *72:8 *300:8 0
15 *80:8 *300:8 0
16 *266:83 *1791:A1 2.4754e-05
17 *292:12 *300:8 0
18 *292:27 *300:27 6.38342e-05
*RES
1 *1959:Q *300:8 42.3707 
2 *300:8 *300:10 15 
3 *300:10 *1791:A1 29.815 
4 *300:10 *300:27 38.265 
5 *300:27 *1637:A3 23 
*END

*D_NET *301 0.00273216
*CONN
*I *1647:A3 I *D sky130_fd_sc_hd__mux4_1
*I *1792:A1 I *D sky130_fd_sc_hd__mux2_1
*I *1960:Q O *D sky130_fd_sc_hd__dfxtp_1
*CAP
1 *1647:A3 0.000384184
2 *1792:A1 0.000397374
3 *1960:Q 0.000235911
4 *301:10 0.00101747
5 *1647:A3 *1647:S0 0
6 *1792:A1 *1647:S1 0
7 *1792:A1 *1944:CLK 0.000105072
8 *1792:A1 *421:33 0.000140671
9 *301:10 *1960:CLK 7.28526e-05
10 *301:10 *421:33 7.80251e-05
11 *301:10 *457:178 0
12 *1647:A2 *1647:A3 0.000190286
13 *41:8 *301:10 0
14 *186:10 *1647:A3 4.68395e-05
15 *266:53 *1792:A1 2.64616e-05
16 *266:61 *1792:A1 3.70187e-05
*RES
1 *1960:Q *301:10 42.64 
2 *301:10 *1792:A1 45.9336 
3 *301:10 *1647:A3 45.3329 
*END

*D_NET *302 0.00166431
*CONN
*I *1653:A3 I *D sky130_fd_sc_hd__mux4_1
*I *1793:A1 I *D sky130_fd_sc_hd__mux2_1
*I *1961:Q O *D sky130_fd_sc_hd__dfxtp_1
*CAP
1 *1653:A3 0
2 *1793:A1 0
3 *1961:Q 0
4 *302:29 0.000605733
5 *302:12 0.000210918
6 *302:4 0.000816651
7 *302:12 *436:21 0
8 *302:29 *398:12 3.10046e-05
9 *294:27 *302:29 0
*RES
1 *1961:Q *302:4 23 
2 *302:4 *302:12 32.7757 
3 *302:12 *1793:A1 23 
4 *302:4 *302:29 39.2179 
5 *302:29 *1653:A3 23 
*END

*D_NET *303 0.00173024
*CONN
*I *1777:A0 I *D sky130_fd_sc_hd__mux2_1
*I *1718:A0 I *D sky130_fd_sc_hd__mux4_1
*I *1946:Q O *D sky130_fd_sc_hd__dfxtp_1
*CAP
1 *1777:A0 5.71104e-05
2 *1718:A0 0.000122879
3 *1946:Q 0.000164408
4 *303:10 0.000344398
5 *1718:A0 *1768:A1 0.000219383
6 *1777:A0 *451:183 8.85189e-05
7 *303:10 *416:113 3.71251e-05
8 *1768:S *1718:A0 0.00026025
9 *231:24 *1718:A0 4.5051e-05
10 *246:10 *1777:A0 0.000128583
11 *246:10 *303:10 0.000163352
12 *265:101 *1777:A0 2.35393e-05
13 *265:101 *303:10 7.56417e-05
*RES
1 *1946:Q *303:10 41.3557 
2 *303:10 *1718:A0 41.48 
3 *303:10 *1777:A0 39.9057 
*END

*D_NET *304 0.00439206
*CONN
*I *1778:A0 I *D sky130_fd_sc_hd__mux2_1
*I *1724:A0 I *D sky130_fd_sc_hd__mux4_1
*I *1947:Q O *D sky130_fd_sc_hd__dfxtp_1
*CAP
1 *1778:A0 0
2 *1724:A0 0
3 *1947:Q 5.42331e-05
4 *304:20 0.000382629
5 *304:12 0.00071439
6 *304:8 0.000385995
7 *304:8 *1685:B 0.00019747
8 *304:20 *1778:A1 0.000394994
9 *304:20 *2094:A 0.000225282
10 *304:20 *407:221 3.59318e-05
11 *304:20 *416:169 0.000239216
12 *304:20 *425:12 1.01436e-05
13 *304:20 *425:40 0.000178517
14 *1725:A *304:12 5.50106e-05
15 *1778:S *304:12 2.18409e-05
16 *1778:S *304:20 2.4754e-05
17 *148:8 *304:20 9.88378e-05
18 *163:108 *304:12 0.000272377
19 *163:108 *304:20 0.000902971
20 *220:8 *304:8 0.00019747
*RES
1 *1947:Q *304:8 40.61 
2 *304:8 *304:12 21.3386 
3 *304:12 *304:20 43.4643 
4 *304:20 *1724:A0 23 
5 *304:12 *1778:A0 23 
*END

*D_NET *305 0.00275663
*CONN
*I *1779:A0 I *D sky130_fd_sc_hd__mux2_1
*I *1734:A0 I *D sky130_fd_sc_hd__mux4_1
*I *1948:Q O *D sky130_fd_sc_hd__dfxtp_1
*CAP
1 *1779:A0 0.000343719
2 *1734:A0 0
3 *1948:Q 0.000219599
4 *305:8 0.000563317
5 *1779:A0 *1779:A1 0.000244801
6 *1779:A0 *2087:A 0
7 *1779:A0 *321:12 0.000129504
8 *1779:A0 *408:421 0.000222104
9 *1779:A0 *416:66 0
10 *1779:A0 *436:75 0
11 *305:8 *1734:A1 0.000255846
12 *305:8 *1770:A1 8.62783e-05
13 *305:8 *321:12 0.000243596
14 *305:8 *416:66 0
15 *305:8 *453:109 4.6318e-06
16 *1739:A1 *1779:A0 0.0002263
17 *263:55 *1779:A0 9.60666e-05
18 *270:30 *1779:A0 0.000120867
*RES
1 *1948:Q *305:8 43.075 
2 *305:8 *1734:A0 38 
3 *305:8 *1779:A0 48.6886 
*END

*D_NET *306 0.00250769
*CONN
*I *1780:A0 I *D sky130_fd_sc_hd__mux2_1
*I *1742:A0 I *D sky130_fd_sc_hd__mux4_1
*I *1949:Q O *D sky130_fd_sc_hd__dfxtp_1
*CAP
1 *1780:A0 0.000911726
2 *1742:A0 3.15879e-05
3 *1949:Q 6.19464e-05
4 *306:12 0.000983818
5 *306:8 0.000102451
6 *1742:A0 *1742:A2 3.91386e-05
7 *1780:A0 *1742:A2 0.000125929
8 *1780:A0 *1742:S1 0.000168224
9 *1780:A0 *314:12 4.94722e-06
10 *1780:A0 *425:26 6.17437e-06
11 *306:8 *410:49 0
12 *306:12 *1742:A2 3.08871e-05
13 *54:10 *306:8 4.08641e-05
*RES
1 *1949:Q *306:8 39.2014 
2 *306:8 *306:12 15.6214 
3 *306:12 *1742:A0 23.8493 
4 *306:12 *1780:A0 34.1029 
*END

*D_NET *307 0.00293133
*CONN
*I *1781:A0 I *D sky130_fd_sc_hd__mux2_1
*I *1629:A0 I *D sky130_fd_sc_hd__mux4_1
*I *1950:Q O *D sky130_fd_sc_hd__dfxtp_1
*CAP
1 *1781:A0 0
2 *1629:A0 0
3 *1950:Q 0
4 *307:27 0.000675808
5 *307:12 0.000323432
6 *307:4 0.000999241
7 *307:12 *323:29 0.000354116
8 *307:12 *410:57 4.23714e-05
9 *307:27 *323:29 4.08664e-05
10 *307:27 *408:384 3.27401e-05
11 *307:27 *417:16 8.62876e-05
12 *1950:D *307:27 5.73018e-05
13 *170:6 *307:27 9.41704e-05
14 *231:51 *307:12 0.000140949
15 *260:10 *307:27 8.4047e-05
*RES
1 *1950:Q *307:4 23 
2 *307:4 *307:12 35.8621 
3 *307:12 *1629:A0 23 
4 *307:4 *307:27 38.6379 
5 *307:27 *1781:A0 23 
*END

*D_NET *308 0.00232387
*CONN
*I *1782:A0 I *D sky130_fd_sc_hd__mux2_1
*I *1639:A0 I *D sky130_fd_sc_hd__mux4_1
*I *1951:Q O *D sky130_fd_sc_hd__dfxtp_1
*CAP
1 *1782:A0 0.000731988
2 *1639:A0 0
3 *1951:Q 0.00013058
4 *308:12 0.000125929
5 *308:6 0.000988497
6 *1782:A0 *1951:CLK 8.04014e-05
7 *1782:A0 *1954:CLK 0
8 *308:12 *455:102 0.000152549
9 *1951:D *1782:A0 2.03343e-05
10 *231:94 *308:12 9.35856e-05
11 *265:26 *1782:A0 0
*RES
1 *1951:Q *308:6 24.5743 
2 *308:6 *308:12 33.6664 
3 *308:12 *1639:A0 23 
4 *308:6 *1782:A0 32.9221 
*END

*D_NET *309 0.00272674
*CONN
*I *1783:A0 I *D sky130_fd_sc_hd__mux2_1
*I *1645:A0 I *D sky130_fd_sc_hd__mux4_1
*I *1952:Q O *D sky130_fd_sc_hd__dfxtp_1
*CAP
1 *1783:A0 0.000370371
2 *1645:A0 0
3 *1952:Q 0.000418669
4 *309:14 0.00078904
5 *1783:A0 *1783:A1 0.000423417
6 *1783:A0 *457:138 5.3304e-05
7 *309:14 *2090:A 0.000228888
8 *309:14 *325:27 5.50106e-05
9 *309:14 *407:69 0
10 *65:10 *1783:A0 5.50106e-05
11 *190:18 *1783:A0 0.000166513
12 *190:18 *309:14 0.000166513
*RES
1 *1952:Q *309:14 46.2857 
2 *309:14 *1645:A0 38 
3 *309:14 *1783:A0 45.6436 
*END

*D_NET *310 0.00269289
*CONN
*I *1784:A0 I *D sky130_fd_sc_hd__mux2_1
*I *1655:A0 I *D sky130_fd_sc_hd__mux4_1
*I *1953:Q O *D sky130_fd_sc_hd__dfxtp_1
*CAP
1 *1784:A0 0
2 *1655:A0 0.000158713
3 *1953:Q 0.000148634
4 *310:27 0.000718027
5 *310:10 0.00087674
6 *310:8 0.000148634
7 *1655:A0 *1655:A2 1.55622e-05
8 *310:8 *1775:A1 0
9 *310:8 *334:8 0
10 *310:8 *408:402 0
11 *310:8 *436:69 2.22079e-05
12 *310:27 *1655:A2 7.16922e-05
13 *310:27 *408:394 0.000112219
14 *310:27 *421:97 4.6318e-06
15 *190:18 *310:27 0
16 *193:10 *310:27 8.16356e-05
17 *197:14 *310:27 5.17601e-05
18 *197:20 *310:27 1.01065e-05
19 *265:69 *310:27 0.000272321
*RES
1 *1953:Q *310:8 40.61 
2 *310:8 *310:10 15 
3 *310:10 *1655:A0 25.4236 
4 *310:10 *310:27 41.7864 
5 *310:27 *1784:A0 23 
*END

*D_NET *311 0.00285167
*CONN
*I *1768:A1 I *D sky130_fd_sc_hd__mux2_1
*I *1718:A1 I *D sky130_fd_sc_hd__mux4_1
*I *1938:Q O *D sky130_fd_sc_hd__dfxtp_1
*CAP
1 *1768:A1 0.000104411
2 *1718:A1 0
3 *1938:Q 0.000632517
4 *311:12 0.000104411
5 *311:10 0.000632517
6 *311:10 *1938:CLK 6.59998e-05
7 *1718:A0 *1768:A1 0.000219383
8 *1768:S *1768:A1 5.13142e-05
9 *1938:D *311:10 0.00012388
10 *59:8 *311:10 0.000161121
11 *231:24 *1768:A1 0.000305431
12 *231:24 *311:10 0.000164373
13 *231:30 *311:10 0.000112818
14 *264:102 *311:10 6.16439e-05
15 *264:123 *311:10 0.000111852
*RES
1 *1938:Q *311:10 47.5493 
2 *311:10 *311:12 15 
3 *311:12 *1718:A1 23 
4 *311:12 *1768:A1 26.48 
*END

*D_NET *312 0.00253092
*CONN
*I *1769:A1 I *D sky130_fd_sc_hd__mux2_1
*I *1724:A1 I *D sky130_fd_sc_hd__mux4_1
*I *1939:Q O *D sky130_fd_sc_hd__dfxtp_1
*CAP
1 *1769:A1 0.000432519
2 *1724:A1 0
3 *1939:Q 0.000226742
4 *312:14 0.000123516
5 *312:6 0.000782778
6 *1769:A1 *1769:A0 5.73288e-05
7 *1769:A1 *407:12 1.32314e-05
8 *1769:A1 *407:18 0.000105849
9 *1769:A1 *416:124 8.264e-05
10 *312:6 *416:124 0.000361027
11 *312:14 *320:21 2.64616e-05
12 *312:14 *452:150 5.3304e-05
13 *312:14 *452:156 2.76611e-06
14 *1939:D *1769:A1 0.000126273
15 *148:8 *312:14 0.000136486
16 *263:110 *312:14 0
*RES
1 *1939:Q *312:6 26.9564 
2 *312:6 *312:14 32.5271 
3 *312:14 *1724:A1 23 
4 *312:6 *1769:A1 30.975 
*END

*D_NET *313 0.00292425
*CONN
*I *1734:A1 I *D sky130_fd_sc_hd__mux4_1
*I *1770:A1 I *D sky130_fd_sc_hd__mux2_1
*I *1940:Q O *D sky130_fd_sc_hd__dfxtp_1
*CAP
1 *1734:A1 0.000210243
2 *1770:A1 0.000301575
3 *1940:Q 0.000168898
4 *313:8 0.000680717
5 *1734:A1 *1734:A3 0.000215791
6 *1734:A1 *416:66 1.7992e-05
7 *1734:A1 *416:72 4.38638e-05
8 *1770:A1 *1734:A3 0.000101708
9 *1770:A1 *329:10 0.000221471
10 *1770:A1 *416:66 1.69668e-05
11 *1770:A1 *453:109 0.000353548
12 *313:8 *456:108 0.0002246
13 *16:33 *1770:A1 2.4754e-05
14 *305:8 *1734:A1 0.000255846
15 *305:8 *1770:A1 8.62783e-05
*RES
1 *1940:Q *313:8 40.5271 
2 *313:8 *1770:A1 46.2029 
3 *313:8 *1734:A1 43.2407 
*END

*D_NET *314 0.00377055
*CONN
*I *1771:A1 I *D sky130_fd_sc_hd__mux2_1
*I *1742:A1 I *D sky130_fd_sc_hd__mux4_1
*I *1941:Q O *D sky130_fd_sc_hd__dfxtp_1
*CAP
1 *1771:A1 0
2 *1742:A1 0
3 *1941:Q 0.000174292
4 *314:35 0.000214947
5 *314:22 0.000412617
6 *314:12 0.000830109
7 *314:8 0.000376837
8 *314:12 *1742:A2 3.19744e-05
9 *314:12 *1742:S1 4.9662e-05
10 *314:22 *1742:A2 6.24154e-05
11 *314:22 *407:55 0.000225399
12 *314:22 *407:203 1.01436e-05
13 *314:22 *410:49 0
14 *314:35 *330:29 0.000110379
15 *314:35 *424:50 8.47428e-05
16 *314:35 *424:65 0.000127598
17 *1780:A0 *314:12 4.94722e-06
18 *29:12 *314:8 0.000422369
19 *54:10 *314:22 2.11827e-05
20 *163:73 *314:35 0.000139352
21 *260:10 *314:8 0.000422369
22 *264:68 *314:35 3.86278e-05
23 *264:95 *314:35 1.05887e-05
*RES
1 *1941:Q *314:8 43.7793 
2 *314:8 *314:12 17.5271 
3 *314:12 *314:22 35.9036 
4 *314:22 *1742:A1 23 
5 *314:12 *314:35 34.5364 
6 *314:35 *1771:A1 23 
*END

*D_NET *315 0.00265237
*CONN
*I *1629:A1 I *D sky130_fd_sc_hd__mux4_1
*I *1772:A1 I *D sky130_fd_sc_hd__mux2_1
*I *1942:Q O *D sky130_fd_sc_hd__dfxtp_1
*CAP
1 *1629:A1 9.71742e-05
2 *1772:A1 0.000331368
3 *1942:Q 0.000222315
4 *315:10 0.000650857
5 *1629:A1 *1629:A3 0.000267167
6 *1629:A1 *408:394 9.13843e-05
7 *1772:A1 *407:203 1.01436e-05
8 *1772:A1 *410:57 0.000459629
9 *1772:A1 *455:117 4.79544e-05
10 *315:10 *407:203 5.26905e-05
11 *315:10 *410:57 0.000125413
12 *1772:S *1772:A1 1.83667e-05
13 *176:16 *1772:A1 0
14 *264:20 *1772:A1 9.67842e-05
15 *265:55 *315:10 0.000181125
*RES
1 *1942:Q *315:10 41.9564 
2 *315:10 *1772:A1 46.1821 
3 *315:10 *1629:A1 41.0036 
*END

*D_NET *316 0.00171797
*CONN
*I *1773:A1 I *D sky130_fd_sc_hd__mux2_1
*I *1639:A1 I *D sky130_fd_sc_hd__mux4_1
*I *1943:Q O *D sky130_fd_sc_hd__dfxtp_1
*CAP
1 *1773:A1 0
2 *1639:A1 0
3 *1943:Q 9.11736e-05
4 *316:25 0.000139192
5 *316:14 0.000405813
6 *316:6 0.000636178
7 *316:14 *455:102 3.884e-05
8 *316:25 *454:28 5.08795e-05
9 *1943:D *316:14 3.71228e-05
10 *176:12 *316:25 0
11 *176:16 *316:25 0
12 *178:8 *316:14 1.30481e-05
13 *231:94 *316:14 0.000137788
14 *267:26 *316:6 7.88926e-05
15 *267:26 *316:14 2.64616e-05
16 *267:26 *316:25 6.25829e-05
*RES
1 *1943:Q *316:6 24.5743 
2 *316:6 *316:14 35.8621 
3 *316:14 *1639:A1 23 
4 *316:6 *316:25 32.9621 
5 *316:25 *1773:A1 23 
*END

*D_NET *317 0.00112864
*CONN
*I *1774:A1 I *D sky130_fd_sc_hd__mux2_1
*I *1645:A1 I *D sky130_fd_sc_hd__mux4_1
*I *1944:Q O *D sky130_fd_sc_hd__dfxtp_1
*CAP
1 *1774:A1 0
2 *1645:A1 0
3 *1944:Q 0.000149412
4 *317:14 0.000160191
5 *317:8 0.000309603
6 *317:8 *1783:A1 5.3304e-05
7 *317:8 *457:138 0.000228903
8 *317:14 *416:136 1.14452e-05
9 *317:14 *421:10 0
10 *65:10 *317:14 0
11 *190:18 *317:14 0.000215782
*RES
1 *1944:Q *317:8 26.5007 
2 *317:8 *317:14 32.9621 
3 *317:14 *1645:A1 23 
4 *317:8 *1774:A1 23 
*END

*D_NET *318 0.00211675
*CONN
*I *1655:A1 I *D sky130_fd_sc_hd__mux4_1
*I *1775:A1 I *D sky130_fd_sc_hd__mux2_1
*I *1945:Q O *D sky130_fd_sc_hd__dfxtp_1
*CAP
1 *1655:A1 0
2 *1775:A1 0.000428821
3 *1945:Q 0.000150913
4 *318:10 0.000579733
5 *1775:A1 *334:8 0.000215791
6 *1775:A1 *334:25 0
7 *1775:A1 *409:237 0.000271476
8 *1775:A1 *436:69 0
9 *318:10 *334:25 0
10 *318:10 *407:139 0
11 *318:10 *436:184 1.39431e-05
12 *1733:B *1775:A1 0.00010018
13 *1775:S *1775:A1 5.67058e-05
14 *263:55 *1775:A1 0.000221162
15 *263:55 *318:10 7.80251e-05
16 *310:8 *1775:A1 0
*RES
1 *1945:Q *318:10 40.8793 
2 *318:10 *1775:A1 48.6886 
3 *318:10 *1655:A1 38 
*END

*D_NET *319 0.00258219
*CONN
*I *1759:A0 I *D sky130_fd_sc_hd__mux2_1
*I *1718:A2 I *D sky130_fd_sc_hd__mux4_1
*I *1930:Q O *D sky130_fd_sc_hd__dfxtp_1
*CAP
1 *1759:A0 0
2 *1718:A2 1.52415e-05
3 *1930:Q 6.54562e-05
4 *319:23 0.000561948
5 *319:8 0.000642645
6 *1718:A2 *327:25 1.16872e-05
7 *319:8 *327:25 1.01436e-05
8 *319:23 *1759:A1 0.000141954
9 *319:23 *327:25 6.25829e-05
10 *319:23 *408:78 9.41704e-05
11 *231:131 *319:23 0.00026916
12 *235:12 *1718:A2 7.02666e-06
13 *266:19 *319:8 7.69935e-05
14 *266:19 *319:23 4.03628e-05
15 *270:89 *319:8 0.000168744
16 *270:89 *319:23 0.000414075
*RES
1 *1930:Q *319:8 40.2579 
2 *319:8 *1718:A2 38.2745 
3 *319:8 *319:23 27.1179 
4 *319:23 *1759:A0 23 
*END

*D_NET *320 0.00220183
*CONN
*I *1724:A2 I *D sky130_fd_sc_hd__mux4_1
*I *1760:A0 I *D sky130_fd_sc_hd__mux2_1
*I *1931:Q O *D sky130_fd_sc_hd__dfxtp_1
*CAP
1 *1724:A2 0
2 *1760:A0 0
3 *1931:Q 0.000194433
4 *320:21 0.000663755
5 *320:6 0.000858188
6 *320:6 *407:43 3.58084e-06
7 *320:21 *1878:A1 6.48142e-05
8 *320:21 *1947:CLK 1.78516e-05
9 *320:21 *328:10 1.14452e-05
10 *320:21 *407:43 2.42041e-05
11 *320:21 *452:20 3.0647e-05
12 *320:21 *452:150 0.000152237
13 *44:12 *320:6 7.8215e-05
14 *263:110 *320:6 5.83407e-05
15 *263:110 *320:21 1.76557e-05
16 *312:14 *320:21 2.64616e-05
*RES
1 *1931:Q *320:6 26.0036 
2 *320:6 *1760:A0 23 
3 *320:6 *320:21 38.8916 
4 *320:21 *1724:A2 23 
*END

*D_NET *321 0.00335326
*CONN
*I *1734:A2 I *D sky130_fd_sc_hd__mux4_1
*I *1761:A0 I *D sky130_fd_sc_hd__mux2_1
*I *1932:Q O *D sky130_fd_sc_hd__dfxtp_1
*CAP
1 *1734:A2 0
2 *1761:A0 0
3 *1932:Q 0
4 *321:29 0.000400657
5 *321:12 0.000275319
6 *321:4 0.000675977
7 *321:12 *456:108 0.000527118
8 *321:29 *408:421 0.000186369
9 *321:29 *436:75 9.63815e-05
10 *1761:S *321:12 0.000312348
11 *1770:S *321:29 0.000192087
12 *1779:A0 *321:12 0.000129504
13 *231:65 *321:12 6.7177e-06
14 *263:44 *321:12 8.52481e-05
15 *263:55 *321:12 0.000174417
16 *267:32 *321:12 4.75206e-05
17 *305:8 *321:12 0.000243596
*RES
1 *1932:Q *321:4 23 
2 *321:4 *321:12 40.9371 
3 *321:12 *1761:A0 23 
4 *321:4 *321:29 38.643 
5 *321:29 *1734:A2 23 
*END

*D_NET *322 0.00217868
*CONN
*I *1742:A2 I *D sky130_fd_sc_hd__mux4_1
*I *1762:A0 I *D sky130_fd_sc_hd__mux2_1
*I *1933:Q O *D sky130_fd_sc_hd__dfxtp_1
*CAP
1 *1742:A2 0.000428503
2 *1762:A0 0
3 *1933:Q 0
4 *322:12 0.000239367
5 *322:4 0.00066787
6 *1742:A2 *407:55 0.000297037
7 *1742:A2 *407:57 5.94374e-05
8 *322:12 *1762:A1 1.38978e-05
9 *322:12 *407:57 2.13102e-05
10 *322:12 *454:22 7.23898e-05
11 *1742:A0 *1742:A2 3.91386e-05
12 *1780:A0 *1742:A2 0.000125929
13 *164:28 *322:12 8.85189e-05
14 *306:12 *1742:A2 3.08871e-05
15 *314:12 *1742:A2 3.19744e-05
16 *314:22 *1742:A2 6.24154e-05
*RES
1 *1933:Q *322:4 23 
2 *322:4 *322:12 33.7286 
3 *322:12 *1762:A0 23 
4 *322:4 *1742:A2 32.8652 
*END

*D_NET *323 0.00225822
*CONN
*I *1629:A2 I *D sky130_fd_sc_hd__mux4_1
*I *1763:A0 I *D sky130_fd_sc_hd__mux2_1
*I *1934:Q O *D sky130_fd_sc_hd__dfxtp_1
*CAP
1 *1629:A2 0
2 *1763:A0 0
3 *1934:Q 2.34823e-05
4 *323:29 0.000304351
5 *323:14 0.000281386
6 *323:6 0.00060922
7 *323:14 *409:166 0
8 *323:14 *455:145 0.000277695
9 *323:29 *1629:S1 2.60152e-05
10 *323:29 *408:384 4.96264e-05
11 *323:29 *408:394 1.16872e-05
12 *47:8 *323:14 0
13 *176:16 *323:29 0.000163352
14 *231:45 *323:29 7.02666e-06
15 *231:51 *323:14 5.32702e-05
16 *231:94 *323:14 5.61207e-05
17 *307:12 *323:29 0.000354116
18 *307:27 *323:29 4.08664e-05
*RES
1 *1934:Q *323:6 23.4971 
2 *323:6 *323:14 36.1936 
3 *323:14 *1763:A0 23 
4 *323:6 *323:29 37.4416 
5 *323:29 *1629:A2 23 
*END

*D_NET *324 0.00196026
*CONN
*I *1639:A2 I *D sky130_fd_sc_hd__mux4_1
*I *1764:A0 I *D sky130_fd_sc_hd__mux2_1
*I *1935:Q O *D sky130_fd_sc_hd__dfxtp_1
*CAP
1 *1639:A2 0
2 *1764:A0 7.34407e-05
3 *1935:Q 5.92902e-05
4 *324:31 0.00050035
5 *324:10 0.000573791
6 *324:8 5.92902e-05
7 *1764:A0 *456:108 5.3304e-05
8 *324:8 *1773:A0 1.58805e-05
9 *324:8 *456:92 4.08537e-05
10 *324:31 *1639:S0 8.68084e-05
11 *324:31 *332:25 6.48142e-05
12 *176:12 *324:31 6.25829e-05
13 *231:94 *324:8 0.000114083
14 *263:32 *324:31 2.88036e-05
15 *263:36 *324:31 7.6881e-05
16 *263:44 *1764:A0 0.000137651
17 *263:44 *324:31 1.24376e-05
*RES
1 *1935:Q *324:8 39.5536 
2 *324:8 *324:10 15 
3 *324:10 *1764:A0 24.5743 
4 *324:10 *324:31 38.1045 
5 *324:31 *1639:A2 23 
*END

*D_NET *325 0.00156222
*CONN
*I *1645:A2 I *D sky130_fd_sc_hd__mux4_1
*I *1765:A0 I *D sky130_fd_sc_hd__mux2_1
*I *1936:Q O *D sky130_fd_sc_hd__dfxtp_1
*CAP
1 *1645:A2 0
2 *1765:A0 0
3 *1936:Q 6.27375e-05
4 *325:27 0.000365055
5 *325:12 0.000107564
6 *325:6 0.000535356
7 *325:12 *408:484 0
8 *325:27 *1645:A3 1.70074e-05
9 *325:27 *2073:A 1.06533e-05
10 *325:27 *2090:A 3.34129e-05
11 *325:27 *407:69 0
12 *325:27 *408:484 0.000138718
13 *325:27 *408:493 1.14452e-05
14 *231:80 *325:12 0.000225265
15 *309:14 *325:27 5.50106e-05
*RES
1 *1936:Q *325:6 23.6214 
2 *325:6 *325:12 32.9621 
3 *325:12 *1765:A0 23 
4 *325:6 *325:27 35.7689 
5 *325:27 *1645:A2 23 
*END

*D_NET *326 0.00203679
*CONN
*I *1655:A2 I *D sky130_fd_sc_hd__mux4_1
*I *1766:A0 I *D sky130_fd_sc_hd__mux2_1
*I *1937:Q O *D sky130_fd_sc_hd__dfxtp_1
*CAP
1 *1655:A2 0.000453204
2 *1766:A0 0
3 *1937:Q 0
4 *326:12 0.0002932
5 *326:4 0.000746404
6 *1655:A2 *408:394 0
7 *326:12 *436:52 0.000104869
8 *326:12 *436:58 0.00019747
9 *326:12 *457:31 0.000154385
10 *1655:A0 *1655:A2 1.55622e-05
11 *310:27 *1655:A2 7.16922e-05
*RES
1 *1937:Q *326:4 23 
2 *326:4 *326:12 36.0693 
3 *326:12 *1766:A0 23 
4 *326:4 *1655:A2 29.9859 
*END

*D_NET *327 0.00141256
*CONN
*I *1718:A3 I *D sky130_fd_sc_hd__mux4_1
*I *1877:A1 I *D sky130_fd_sc_hd__mux2_1
*I *2052:Q O *D sky130_fd_sc_hd__dfxtp_1
*CAP
1 *1718:A3 0
2 *1877:A1 0
3 *2052:Q 9.40347e-05
4 *327:25 0.000362639
5 *327:12 5.16858e-05
6 *327:6 0.00050836
7 *327:6 *408:384 3.16784e-05
8 *327:12 *416:120 2.5415e-05
9 *327:25 *408:384 9.69279e-05
10 *1718:A2 *327:25 1.16872e-05
11 *43:8 *327:12 8.4047e-05
12 *235:12 *327:25 8.55148e-06
13 *266:19 *327:25 6.48049e-05
14 *319:8 *327:25 1.01436e-05
15 *319:23 *327:25 6.25829e-05
*RES
1 *2052:Q *327:6 24.0979 
2 *327:6 *327:12 31.2014 
3 *327:12 *1877:A1 23 
4 *327:6 *327:25 35.2821 
5 *327:25 *1718:A3 23 
*END

*D_NET *328 0.00189025
*CONN
*I *1724:A3 I *D sky130_fd_sc_hd__mux4_1
*I *1878:A1 I *D sky130_fd_sc_hd__mux2_1
*I *2053:Q O *D sky130_fd_sc_hd__dfxtp_1
*CAP
1 *1724:A3 0
2 *1878:A1 0.000318557
3 *2053:Q 0.000123768
4 *328:10 0.000442325
5 *1878:A1 *407:234 8.26569e-05
6 *1878:A1 *409:52 0.000431852
7 *1878:A1 *452:20 4.31159e-05
8 *1878:A1 *452:22 0
9 *1878:A1 *452:134 0.000114969
10 *328:10 *1742:S1 5.3304e-05
11 *328:10 *409:52 0.000155059
12 *328:10 *452:20 4.83838e-05
13 *320:21 *1878:A1 6.48142e-05
14 *320:21 *328:10 1.14452e-05
*RES
1 *2053:Q *328:10 40.8793 
2 *328:10 *1878:A1 46.3064 
3 *328:10 *1724:A3 38 
*END

*D_NET *329 0.00357017
*CONN
*I *1734:A3 I *D sky130_fd_sc_hd__mux4_1
*I *1879:A1 I *D sky130_fd_sc_hd__mux2_1
*I *2054:Q O *D sky130_fd_sc_hd__dfxtp_1
*CAP
1 *1734:A3 0.000481015
2 *1879:A1 0.000261199
3 *2054:Q 0.000154985
4 *329:10 0.000897199
5 *1734:A3 *416:66 8.57661e-05
6 *1734:A3 *416:72 8.97286e-06
7 *1879:A1 *1879:A0 5.50049e-05
8 *1879:A1 *453:109 0.000426938
9 *1734:A1 *1734:A3 0.000215791
10 *1770:A1 *1734:A3 0.000101708
11 *1770:A1 *329:10 0.000221471
12 *53:8 *1734:A3 0.000136486
13 *53:8 *329:10 0.000188916
14 *177:10 *1879:A1 9.14693e-05
15 *231:65 *1879:A1 0.000243247
*RES
1 *2054:Q *329:10 41.2314 
2 *329:10 *1879:A1 45.7679 
3 *329:10 *1734:A3 46.3686 
*END

*D_NET *330 0.00254552
*CONN
*I *1742:A3 I *D sky130_fd_sc_hd__mux4_1
*I *1880:A1 I *D sky130_fd_sc_hd__mux2_1
*I *2055:Q O *D sky130_fd_sc_hd__dfxtp_1
*CAP
1 *1742:A3 0
2 *1880:A1 0
3 *2055:Q 0
4 *330:29 0.000482207
5 *330:12 0.000240952
6 *330:4 0.000723159
7 *330:12 *409:160 8.3962e-05
8 *330:12 *410:49 4.86964e-05
9 *330:12 *410:53 0.000133316
10 *330:29 *410:88 2.64616e-05
11 *330:29 *424:65 6.50237e-05
12 *330:29 *454:141 4.96717e-05
13 *54:10 *330:29 5.67058e-05
14 *163:73 *330:29 0.000170601
15 *164:28 *330:12 0.000184527
16 *264:95 *330:29 0.00016986
17 *314:35 *330:29 0.000110379
*RES
1 *2055:Q *330:4 23 
2 *330:4 *330:12 34.6607 
3 *330:12 *1880:A1 23 
4 *330:4 *330:29 40.1914 
5 *330:29 *1742:A3 23 
*END

*D_NET *331 0.00157455
*CONN
*I *1881:A1 I *D sky130_fd_sc_hd__mux2_1
*I *1629:A3 I *D sky130_fd_sc_hd__mux4_1
*I *2056:Q O *D sky130_fd_sc_hd__dfxtp_1
*CAP
1 *1881:A1 0
2 *1629:A3 0.000189006
3 *2056:Q 5.27068e-05
4 *331:25 6.51521e-05
5 *331:6 0.000306865
6 *1629:A3 *408:394 5.78606e-05
7 *331:6 *408:394 3.70553e-06
8 *331:25 *454:28 0.000138727
9 *1629:A1 *1629:A3 0.000267167
10 *231:45 *1629:A3 0.000354634
11 *231:51 *331:25 1.01436e-05
12 *231:107 *331:25 0.000128583
*RES
1 *2056:Q *331:6 23.6214 
2 *331:6 *1629:A3 29.0486 
3 *331:6 *331:25 31.9057 
4 *331:25 *1881:A1 23 
*END

*D_NET *332 0.0019643
*CONN
*I *1639:A3 I *D sky130_fd_sc_hd__mux4_1
*I *1882:A1 I *D sky130_fd_sc_hd__mux2_1
*I *2057:Q O *D sky130_fd_sc_hd__dfxtp_1
*CAP
1 *1639:A3 0
2 *1882:A1 0
3 *2057:Q 0
4 *332:25 0.000417099
5 *332:12 0.000267672
6 *332:4 0.000684771
7 *332:12 *455:102 0
8 *332:25 *454:28 0
9 *16:33 *332:12 6.88885e-05
10 *16:33 *332:25 9.85891e-05
11 *176:12 *332:25 0.000141284
12 *231:94 *332:12 0.000221184
13 *324:31 *332:25 6.48142e-05
*RES
1 *2057:Q *332:4 23 
2 *332:4 *332:12 35.0129 
3 *332:12 *1882:A1 23 
4 *332:4 *332:25 37.7264 
5 *332:25 *1639:A3 23 
*END

*D_NET *333 0.00201645
*CONN
*I *1645:A3 I *D sky130_fd_sc_hd__mux4_1
*I *1883:A1 I *D sky130_fd_sc_hd__mux2_1
*I *2058:Q O *D sky130_fd_sc_hd__dfxtp_1
*CAP
1 *1645:A3 0.000615257
2 *1883:A1 0
3 *2058:Q 0
4 *333:10 0.000123666
5 *333:4 0.000738923
6 *1645:A3 *2073:A 5.77253e-05
7 *1645:A3 *407:61 3.91386e-05
8 *333:10 *436:48 0
9 *333:10 *457:29 0.000218962
10 *184:10 *1645:A3 0.000128401
11 *266:65 *1645:A3 7.73735e-05
12 *325:27 *1645:A3 1.70074e-05
*RES
1 *2058:Q *333:4 23 
2 *333:4 *333:10 32.9621 
3 *333:10 *1883:A1 23 
4 *333:4 *1645:A3 33.1914 
*END

*D_NET *334 0.00173131
*CONN
*I *1655:A3 I *D sky130_fd_sc_hd__mux4_1
*I *1884:A1 I *D sky130_fd_sc_hd__mux2_1
*I *2059:Q O *D sky130_fd_sc_hd__dfxtp_1
*CAP
1 *1655:A3 0
2 *1884:A1 8.72395e-05
3 *2059:Q 0.00013205
4 *334:25 0.000413903
5 *334:10 0.000501143
6 *334:8 0.00013205
7 *1884:A1 *436:69 4.9662e-05
8 *334:8 *436:69 0
9 *334:25 *408:402 2.55771e-05
10 *334:25 *436:69 0.000164364
11 *1775:A1 *334:8 0.000215791
12 *1775:A1 *334:25 0
13 *231:55 *334:25 9.52814e-06
14 *310:8 *334:8 0
15 *318:10 *334:25 0
*RES
1 *2059:Q *334:8 40.9621 
2 *334:8 *334:10 15 
3 *334:10 *1884:A1 24.0979 
4 *334:10 *334:25 36.3386 
5 *334:25 *1655:A3 23 
*END

*D_NET *335 0.00290916
*CONN
*I *1869:A1 I *D sky130_fd_sc_hd__mux2_1
*I *1720:A1 I *D sky130_fd_sc_hd__mux4_1
*I *2044:Q O *D sky130_fd_sc_hd__dfxtp_1
*CAP
1 *1869:A1 0.00063487
2 *1720:A1 0
3 *2044:Q 0.000322297
4 *335:10 0.000957166
5 *1720:A0 *335:10 0.000277705
6 *237:14 *1869:A1 0
7 *237:14 *335:10 0
8 *272:25 *1869:A1 0.000141869
9 *272:25 *335:10 0.000216051
10 *272:31 *335:10 0.000190171
11 *277:92 *1869:A1 4.56219e-05
12 *277:100 *1869:A1 3.71251e-05
13 *279:10 *335:10 8.62876e-05
*RES
1 *2044:Q *335:10 45.6021 
2 *335:10 *1720:A1 38 
3 *335:10 *1869:A1 47.1971 
*END

*D_NET *336 0.00246911
*CONN
*I *1870:A1 I *D sky130_fd_sc_hd__mux2_1
*I *1728:A1 I *D sky130_fd_sc_hd__mux4_1
*I *2045:Q O *D sky130_fd_sc_hd__dfxtp_1
*CAP
1 *1870:A1 0.000252452
2 *1728:A1 0
3 *2045:Q 0.000822626
4 *336:10 0.00107508
5 *1870:A1 *1987:CLK 0
6 *336:10 *2045:CLK 1.27253e-05
7 *336:10 *344:8 1.39396e-05
8 *336:10 *430:67 2.64616e-05
9 *1728:A0 *1870:A1 3.31127e-05
10 *1825:A0 *1870:A1 3.83778e-05
11 *1870:S *1870:A1 1.05235e-05
12 *2045:D *336:10 8.42176e-05
13 *272:25 *1870:A1 6.02277e-06
14 *272:25 *336:10 9.35752e-05
*RES
1 *2045:Q *336:10 49.9107 
2 *336:10 *1728:A1 38 
3 *336:10 *1870:A1 41.8321 
*END

*D_NET *337 0.00142522
*CONN
*I *1871:A1 I *D sky130_fd_sc_hd__mux2_1
*I *1736:A1 I *D sky130_fd_sc_hd__mux4_1
*I *2046:Q O *D sky130_fd_sc_hd__dfxtp_1
*CAP
1 *1871:A1 7.46961e-05
2 *1736:A1 0.000346595
3 *2046:Q 0.000201459
4 *337:10 0.00062275
5 *1736:A1 *407:477 9.1889e-05
6 *337:10 *2064:CLK 2.30292e-05
7 *337:10 *353:25 6.48049e-05
8 *337:10 *408:178 0
9 *1736:A0 *337:10 0
10 *141:8 *1871:A1 0
11 *141:8 *337:10 0
*RES
1 *2046:Q *337:10 41.5836 
2 *337:10 *1736:A1 43.2821 
3 *337:10 *1871:A1 39.2014 
*END

*D_NET *338 0.00308525
*CONN
*I *1744:A1 I *D sky130_fd_sc_hd__mux4_1
*I *1872:A1 I *D sky130_fd_sc_hd__mux2_1
*I *2047:Q O *D sky130_fd_sc_hd__dfxtp_1
*CAP
1 *1744:A1 0
2 *1872:A1 0.000382807
3 *2047:Q 0.000685876
4 *338:10 0.00106868
5 *1872:A1 *431:23 0.000219882
6 *1872:A1 *431:34 0.000177852
7 *1872:A1 *454:89 1.59094e-05
8 *1872:A1 *454:102 0.00010776
9 *338:10 *2047:CLK 6.17437e-06
10 *338:10 *431:34 0.000163343
11 *2047:D *338:10 4.9054e-06
12 *102:10 *1872:A1 5.31444e-05
13 *142:10 *1872:A1 0.000105402
14 *142:10 *338:10 4.38375e-05
15 *259:12 *1872:A1 0
16 *277:18 *1872:A1 4.96717e-05
*RES
1 *2047:Q *338:10 47.5493 
2 *338:10 *1872:A1 46.9071 
3 *338:10 *1744:A1 38 
*END

*D_NET *339 0.00185013
*CONN
*I *1633:A1 I *D sky130_fd_sc_hd__mux4_1
*I *1873:A1 I *D sky130_fd_sc_hd__mux2_1
*I *2048:Q O *D sky130_fd_sc_hd__dfxtp_1
*CAP
1 *1633:A1 0.000342972
2 *1873:A1 0.000287548
3 *2048:Q 0
4 *339:6 0.00063052
5 *1873:A1 *456:18 0.000187129
6 *1633:A0 *1633:A1 5.50106e-05
7 *1828:A0 *1633:A1 2.55642e-05
8 *1873:S *1873:A1 5.41288e-05
9 *103:8 *1633:A1 9.00646e-05
10 *143:8 *1873:A1 0
11 *278:118 *1873:A1 3.53115e-05
12 *283:10 *1633:A1 0.000141879
*RES
1 *2048:Q *339:6 38 
2 *339:6 *1873:A1 44.4214 
3 *339:6 *1633:A1 45.1257 
*END

*D_NET *340 0.00221949
*CONN
*I *1641:A1 I *D sky130_fd_sc_hd__mux4_1
*I *1874:A1 I *D sky130_fd_sc_hd__mux2_1
*I *2049:Q O *D sky130_fd_sc_hd__dfxtp_1
*CAP
1 *1641:A1 6.14474e-05
2 *1874:A1 0.000305344
3 *2049:Q 0.000322787
4 *340:8 0.000689578
5 *1874:A1 *456:210 0.000108811
6 *340:8 *456:210 2.20111e-05
7 *1641:A0 *1641:A1 6.22475e-05
8 *1641:A0 *1874:A1 4.7869e-05
9 *1873:S *1874:A1 1.57571e-05
10 *2049:D *340:8 1.39317e-05
11 *272:35 *1874:A1 0.00030457
12 *272:48 *1641:A1 0.000138727
13 *272:48 *1874:A1 5.33597e-05
14 *277:102 *1874:A1 6.17437e-06
15 *284:10 *1874:A1 6.68793e-05
*RES
1 *2049:Q *340:8 41.9564 
2 *340:8 *1874:A1 45.8093 
3 *340:8 *1641:A1 39.9057 
*END

*D_NET *341 0.0019692
*CONN
*I *1875:A1 I *D sky130_fd_sc_hd__mux2_1
*I *1649:A1 I *D sky130_fd_sc_hd__mux4_1
*I *2050:Q O *D sky130_fd_sc_hd__dfxtp_1
*CAP
1 *1875:A1 0.000319452
2 *1649:A1 0.000178878
3 *2050:Q 0
4 *341:6 0.00049833
5 *1649:A1 *1857:A1 0.000137651
6 *1649:A1 *349:8 0.000137143
7 *1649:A1 *349:27 3.16784e-05
8 *1649:A1 *357:8 3.47781e-05
9 *1649:A1 *416:22 0.000121262
10 *1875:A1 *1875:A0 0.000392386
11 *1875:A1 *349:8 3.72639e-05
12 *1875:A1 *416:22 5.56203e-05
13 *161:8 *1875:A1 0
14 *277:60 *1875:A1 2.4754e-05
*RES
1 *2050:Q *341:6 38 
2 *341:6 *1649:A1 43.2407 
3 *341:6 *1875:A1 44.4629 
*END

*D_NET *342 0.00161494
*CONN
*I *1876:A1 I *D sky130_fd_sc_hd__mux2_1
*I *1657:A1 I *D sky130_fd_sc_hd__mux4_1
*I *2051:Q O *D sky130_fd_sc_hd__dfxtp_1
*CAP
1 *1876:A1 0
2 *1657:A1 0
3 *2051:Q 0
4 *342:25 0.000213008
5 *342:12 0.000209759
6 *342:4 0.000422766
7 *342:12 *350:14 0.000145049
8 *342:12 *416:28 2.81066e-05
9 *342:12 *436:92 0.000274543
10 *342:25 *350:29 8.08139e-06
11 *342:25 *407:295 1.01436e-05
12 *342:25 *407:373 0.000131735
13 *342:25 *416:28 2.98648e-05
14 *277:42 *342:25 0.000141879
15 *278:47 *342:12 0
*RES
1 *2051:Q *342:4 23 
2 *342:4 *342:12 34.7643 
3 *342:12 *1657:A1 23 
4 *342:4 *342:25 33.9564 
5 *342:25 *1876:A1 23 
*END

*D_NET *343 0.00271439
*CONN
*I *1720:A2 I *D sky130_fd_sc_hd__mux4_1
*I *1886:A0 I *D sky130_fd_sc_hd__mux2_1
*I *2060:Q O *D sky130_fd_sc_hd__dfxtp_1
*CAP
1 *1720:A2 0
2 *1886:A0 0
3 *2060:Q 0
4 *343:27 0.000504323
5 *343:12 0.000291442
6 *343:4 0.000795765
7 *343:12 *451:29 0.000265178
8 *343:12 *451:44 0.000145049
9 *343:27 *1824:A1 1.32939e-05
10 *343:27 *1851:A1 9.81081e-06
11 *343:27 *2060:CLK 1.59094e-05
12 *343:27 *351:10 0.000132743
13 *343:27 *430:14 0.000263579
14 *343:27 *430:16 1.59094e-05
15 *237:8 *343:27 1.6318e-05
16 *272:31 *343:12 5.14746e-06
17 *277:100 *343:12 0.000216721
18 *278:110 *343:12 2.32004e-05
*RES
1 *2060:Q *343:4 23 
2 *343:4 *343:12 35.9657 
3 *343:12 *1886:A0 23 
4 *343:4 *343:27 37.6746 
5 *343:27 *1720:A2 23 
*END

*D_NET *344 0.00242278
*CONN
*I *1728:A2 I *D sky130_fd_sc_hd__mux4_1
*I *1887:A0 I *D sky130_fd_sc_hd__mux2_1
*I *2061:Q O *D sky130_fd_sc_hd__dfxtp_1
*CAP
1 *1728:A2 9.97568e-05
2 *1887:A0 0.000370874
3 *2061:Q 0.000268576
4 *344:8 0.000739206
5 *1728:A2 *1728:S0 1.6318e-05
6 *1887:A0 *1852:A0 0.000304518
7 *1887:A0 *452:89 5.67058e-05
8 *344:8 *430:67 2.81066e-05
9 *275:16 *1728:A2 0.000136486
10 *275:16 *1887:A0 0.000219873
11 *277:92 *1728:A2 5.97612e-05
12 *277:92 *1887:A0 0.000108662
13 *336:10 *344:8 1.39396e-05
*RES
1 *2061:Q *344:8 41.0036 
2 *344:8 *1887:A0 44.9186 
3 *344:8 *1728:A2 40.2889 
*END

*D_NET *345 0.00198014
*CONN
*I *1888:A0 I *D sky130_fd_sc_hd__mux2_1
*I *1736:A2 I *D sky130_fd_sc_hd__mux4_1
*I *2062:Q O *D sky130_fd_sc_hd__dfxtp_1
*CAP
1 *1888:A0 0.000182232
2 *1736:A2 0.00028017
3 *2062:Q 0.000182668
4 *345:8 0.00064507
5 *1736:A2 *353:25 0.00012995
6 *1888:A0 *1871:A0 2.93747e-05
7 *1888:A0 *353:10 3.84694e-05
8 *1888:A0 *453:33 1.76557e-05
9 *345:8 *353:10 3.56537e-05
10 *345:8 *419:76 0
11 *1853:S *1736:A2 5.3304e-05
12 *157:8 *1888:A0 0
13 *157:8 *345:8 0
14 *251:8 *1736:A2 5.67058e-05
15 *251:14 *1888:A0 4.73585e-05
16 *275:63 *1888:A0 3.47781e-05
17 *275:63 *345:8 0.000246748
*RES
1 *2062:Q *345:8 42.3707 
2 *345:8 *1736:A2 43.8984 
3 *345:8 *1888:A0 41.7079 
*END

*D_NET *346 0.00260634
*CONN
*I *1744:A2 I *D sky130_fd_sc_hd__mux4_1
*I *1889:A0 I *D sky130_fd_sc_hd__mux2_1
*I *2063:Q O *D sky130_fd_sc_hd__dfxtp_1
*CAP
1 *1744:A2 0
2 *1889:A0 0
3 *2063:Q 2.34823e-05
4 *346:29 0.000279077
5 *346:14 0.00021736
6 *346:6 0.000519919
7 *346:14 *454:34 0.000269429
8 *346:29 *1744:A3 3.28708e-05
9 *346:29 *1744:S1 6.48142e-05
10 *346:29 *408:239 0.000108681
11 *1889:S *346:14 7.57281e-06
12 *176:12 *346:14 0
13 *183:10 *346:29 0.000164282
14 *275:111 *346:14 0
15 *275:119 *346:14 0.000183733
16 *277:30 *346:14 2.13733e-05
17 *278:22 *346:14 0.000234413
18 *278:22 *346:29 0.000383463
19 *282:10 *346:29 9.58714e-05
*RES
1 *2063:Q *346:6 23.4971 
2 *346:6 *346:14 36.1936 
3 *346:14 *1889:A0 23 
4 *346:6 *346:29 37.0739 
5 *346:29 *1744:A2 23 
*END

*D_NET *347 0.00257094
*CONN
*I *1633:A2 I *D sky130_fd_sc_hd__mux4_1
*I *1890:A0 I *D sky130_fd_sc_hd__mux2_1
*I *2064:Q O *D sky130_fd_sc_hd__dfxtp_1
*CAP
1 *1633:A2 0
2 *1890:A0 0
3 *2064:Q 0.000233115
4 *347:27 0.000505111
5 *347:12 0.000250638
6 *347:6 0.000988864
7 *347:12 *355:8 3.62219e-05
8 *347:12 *426:36 1.69668e-05
9 *347:12 *455:20 0.000175171
10 *347:27 *2024:CLK 0.000125416
11 *347:27 *355:33 1.06533e-05
12 *2064:D *347:6 2.72257e-05
13 *103:8 *347:27 0
14 *143:8 *347:12 0
15 *174:14 *347:27 3.0647e-05
16 *275:57 *347:27 5.85822e-06
17 *275:63 *347:6 1.6158e-05
18 *275:63 *347:27 2.92911e-06
19 *275:80 *347:12 0.000145969
*RES
1 *2064:Q *347:6 26.0036 
2 *347:6 *347:12 36.8357 
3 *347:12 *1890:A0 23 
4 *347:6 *347:27 37.1982 
5 *347:27 *1633:A2 23 
*END

*D_NET *348 0.00216058
*CONN
*I *1641:A2 I *D sky130_fd_sc_hd__mux4_1
*I *1891:A0 I *D sky130_fd_sc_hd__mux2_1
*I *2065:Q O *D sky130_fd_sc_hd__dfxtp_1
*CAP
1 *1641:A2 0
2 *1891:A0 0.00022967
3 *2065:Q 0.000242556
4 *348:27 0.00030288
5 *348:10 0.00053255
6 *348:8 0.000242556
7 *1891:A0 *1891:A1 2.30292e-05
8 *348:8 *356:14 0.000215782
9 *348:8 *356:27 0
10 *348:8 *408:342 0
11 *348:8 *429:46 0
12 *348:27 *356:27 1.01436e-05
13 *348:27 *408:342 3.31127e-05
14 *1856:S *348:8 4.08537e-05
15 *1891:S *1891:A0 9.88574e-06
16 *181:8 *1891:A0 5.26733e-06
17 *181:8 *348:27 7.18992e-06
18 *181:14 *348:27 1.69668e-05
19 *275:44 *348:8 0.000125506
20 *275:44 *348:27 0.000122634
*RES
1 *2065:Q *348:8 43.7793 
2 *348:8 *348:10 15 
3 *348:10 *1891:A0 26.0036 
4 *348:10 *348:27 35.0802 
5 *348:27 *1641:A2 23 
*END

*D_NET *349 0.00239996
*CONN
*I *1649:A2 I *D sky130_fd_sc_hd__mux4_1
*I *1892:A0 I *D sky130_fd_sc_hd__mux2_1
*I *2066:Q O *D sky130_fd_sc_hd__dfxtp_1
*CAP
1 *1649:A2 1.50809e-05
2 *1892:A0 0.000151888
3 *2066:Q 0.000223104
4 *349:27 0.000447799
5 *349:8 0.00080771
6 *1892:A0 *1892:A1 2.30292e-05
7 *349:8 *357:8 4.98718e-06
8 *349:27 *1649:A3 5.63605e-05
9 *349:27 *1649:S0 1.59094e-05
10 *349:27 *1649:S1 1.69668e-05
11 *349:27 *1857:A1 9.88574e-06
12 *349:27 *408:249 2.76611e-06
13 *1649:A0 *1892:A0 7.39034e-05
14 *1649:A0 *349:8 6.48142e-05
15 *1649:A1 *349:8 0.000137143
16 *1649:A1 *349:27 3.16784e-05
17 *1830:A0 *1892:A0 1.01436e-05
18 *1857:S *1892:A0 8.62876e-05
19 *1857:S *349:8 8.11552e-05
20 *1875:A1 *349:8 3.72639e-05
21 *1892:S *1892:A0 7.43025e-06
22 *161:8 *349:8 0
23 *189:6 *1649:A2 3.7122e-06
24 *189:6 *349:27 2.80924e-06
25 *275:119 *1892:A0 5.50106e-05
26 *277:60 *349:27 3.3123e-05
*RES
1 *2066:Q *349:8 43.7793 
2 *349:8 *1892:A0 40.7757 
3 *349:8 *349:27 35.7586 
4 *349:27 *1649:A2 38.2745 
*END

*D_NET *350 0.00225965
*CONN
*I *1657:A2 I *D sky130_fd_sc_hd__mux4_1
*I *1893:A0 I *D sky130_fd_sc_hd__mux2_1
*I *2067:Q O *D sky130_fd_sc_hd__dfxtp_1
*CAP
1 *1657:A2 0
2 *1893:A0 0
3 *2067:Q 0
4 *350:29 0.000512715
5 *350:14 0.000276089
6 *350:4 0.000788804
7 *350:14 *1893:A1 5.50049e-05
8 *350:14 *416:28 2.64616e-05
9 *350:14 *436:92 9.03157e-05
10 *350:29 *407:293 1.83763e-05
11 *350:29 *407:295 0
12 *350:29 *416:28 9.4713e-05
13 *350:29 *416:43 0.000139647
14 *1893:S *350:14 5.12254e-05
15 *2051:D *350:29 6.17437e-06
16 *162:8 *350:14 0
17 *196:8 *350:29 1.01712e-05
18 *278:41 *350:14 3.0647e-05
19 *278:47 *350:14 6.17437e-06
20 *342:12 *350:14 0.000145049
21 *342:25 *350:29 8.08139e-06
*RES
1 *2067:Q *350:4 23 
2 *350:4 *350:14 36.09 
3 *350:14 *1893:A0 23 
4 *350:4 *350:29 37.5659 
5 *350:29 *1657:A2 23 
*END

*D_NET *351 0.00241022
*CONN
*I *1851:A1 I *D sky130_fd_sc_hd__mux2_1
*I *1720:A3 I *D sky130_fd_sc_hd__mux4_1
*I *2019:Q O *D sky130_fd_sc_hd__dfxtp_1
*CAP
1 *1851:A1 0.000565945
2 *1720:A3 0
3 *2019:Q 0.000230735
4 *351:10 0.00079668
5 *1851:A1 *1851:A0 0.000137651
6 *1851:A1 *430:14 2.70366e-05
7 *351:10 *1824:A1 5.72217e-05
8 *351:10 *430:14 1.38338e-05
9 *123:10 *1851:A1 2.62931e-05
10 *237:8 *1851:A1 3.21734e-05
11 *237:14 *1851:A1 3.31127e-05
12 *237:14 *351:10 4.15526e-05
13 *275:34 *1851:A1 0.000305431
14 *343:27 *1851:A1 9.81081e-06
15 *343:27 *351:10 0.000132743
*RES
1 *2019:Q *351:10 42.3086 
2 *351:10 *1720:A3 38 
3 *351:10 *1851:A1 47.7357 
*END

*D_NET *352 0.00119327
*CONN
*I *1728:A3 I *D sky130_fd_sc_hd__mux4_1
*I *1852:A1 I *D sky130_fd_sc_hd__mux2_1
*I *2020:Q O *D sky130_fd_sc_hd__dfxtp_1
*CAP
1 *1728:A3 0
2 *1852:A1 0.000153478
3 *2020:Q 0.000101631
4 *352:10 0.000255109
5 *352:10 *452:54 2.93845e-05
6 *140:8 *1852:A1 0.00012837
7 *140:8 *352:10 7.03663e-05
8 *272:25 *1852:A1 0
9 *275:16 *1852:A1 0.000381635
10 *275:16 *352:10 7.32961e-05
*RES
1 *2020:Q *352:10 40.5271 
2 *352:10 *1852:A1 43.075 
3 *352:10 *1728:A3 38 
*END

*D_NET *353 0.00184012
*CONN
*I *1736:A3 I *D sky130_fd_sc_hd__mux4_1
*I *1853:A1 I *D sky130_fd_sc_hd__mux2_1
*I *2021:Q O *D sky130_fd_sc_hd__dfxtp_1
*CAP
1 *1736:A3 0
2 *1853:A1 0
3 *2021:Q 0.000137617
4 *353:25 0.000558992
5 *353:12 0.000558992
6 *353:10 0.000137617
7 *353:10 *419:63 2.30292e-05
8 *353:10 *419:70 5.37348e-06
9 *353:25 *408:178 4.21594e-06
10 *1736:A2 *353:25 0.00012995
11 *1853:S *353:25 4.93223e-05
12 *1888:A0 *353:10 3.84694e-05
13 *141:8 *353:25 0
14 *157:8 *353:10 7.66085e-05
15 *251:8 *353:25 1.94693e-05
16 *337:10 *353:25 6.48049e-05
17 *345:8 *353:10 3.56537e-05
*RES
1 *2021:Q *353:10 41.5836 
2 *353:10 *353:12 15 
3 *353:12 *1853:A1 23 
4 *353:12 *353:25 38.1407 
5 *353:25 *1736:A3 23 
*END

*D_NET *354 0.00155686
*CONN
*I *1854:A1 I *D sky130_fd_sc_hd__mux2_1
*I *1744:A3 I *D sky130_fd_sc_hd__mux4_1
*I *2022:Q O *D sky130_fd_sc_hd__dfxtp_1
*CAP
1 *1854:A1 0
2 *1744:A3 0.000259292
3 *2022:Q 0
4 *354:21 0.000162678
5 *354:4 0.00042197
6 *1744:A3 *408:243 9.87414e-05
7 *1744:A3 *408:247 3.16665e-05
8 *354:21 *454:34 0
9 *1854:S *354:21 0.00014411
10 *176:12 *354:21 0.000169674
11 *258:10 *1744:A3 0.000235857
12 *346:29 *1744:A3 3.28708e-05
*RES
1 *2022:Q *354:4 23 
2 *354:4 *1744:A3 29.235 
3 *354:4 *354:21 33.8321 
4 *354:21 *1854:A1 23 
*END

*D_NET *355 0.00235864
*CONN
*I *1633:A3 I *D sky130_fd_sc_hd__mux4_1
*I *1855:A1 I *D sky130_fd_sc_hd__mux2_1
*I *2023:Q O *D sky130_fd_sc_hd__dfxtp_1
*CAP
1 *1633:A3 0
2 *1855:A1 7.12919e-05
3 *2023:Q 0.00014578
4 *355:33 0.000410932
5 *355:10 0.000482224
6 *355:8 0.00014578
7 *1855:A1 *407:477 1.98161e-05
8 *1855:A1 *408:178 4.05745e-05
9 *1855:A1 *455:31 9.91798e-05
10 *355:8 *407:477 1.12487e-05
11 *355:8 *426:32 0.000204337
12 *355:8 *426:36 0.000168744
13 *355:33 *407:501 3.31127e-05
14 *355:33 *408:158 2.22079e-05
15 *355:33 *408:178 0.000124747
16 *355:33 *455:31 6.17437e-06
17 *275:80 *1855:A1 5.3304e-05
18 *275:80 *355:8 0.000272312
19 *347:12 *355:8 3.62219e-05
20 *347:27 *355:33 1.06533e-05
*RES
1 *2023:Q *355:8 43.075 
2 *355:8 *355:10 15 
3 *355:10 *1855:A1 25.0507 
4 *355:10 *355:33 37.0429 
5 *355:33 *1633:A3 23 
*END

*D_NET *356 0.0026454
*CONN
*I *1641:A3 I *D sky130_fd_sc_hd__mux4_1
*I *1856:A1 I *D sky130_fd_sc_hd__mux2_1
*I *2024:Q O *D sky130_fd_sc_hd__dfxtp_1
*CAP
1 *1641:A3 0
2 *1856:A1 0
3 *2024:Q 0.000154266
4 *356:27 0.000478726
5 *356:14 0.000327199
6 *356:6 0.000960192
7 *356:6 *429:59 5.12328e-05
8 *356:14 *429:46 2.99716e-05
9 *356:14 *456:195 2.30292e-05
10 *356:14 *456:202 2.30292e-05
11 *356:27 *429:59 7.19269e-05
12 *1856:S *356:14 8.58486e-05
13 *1873:S *356:14 9.84851e-05
14 *2024:D *356:6 3.7122e-06
15 *2049:D *356:27 6.46633e-05
16 *128:10 *356:14 0
17 *181:14 *356:27 4.4382e-05
18 *275:44 *356:27 0
19 *275:57 *356:6 2.81406e-06
20 *278:118 *356:14 0
21 *348:8 *356:14 0.000215782
22 *348:8 *356:27 0
23 *348:27 *356:27 1.01436e-05
*RES
1 *2024:Q *356:6 25.0507 
2 *356:6 *356:14 37.5814 
3 *356:14 *1856:A1 23 
4 *356:6 *356:27 37.1671 
5 *356:27 *1641:A3 23 
*END

*D_NET *357 0.00241455
*CONN
*I *1649:A3 I *D sky130_fd_sc_hd__mux4_1
*I *1857:A1 I *D sky130_fd_sc_hd__mux2_1
*I *2025:Q O *D sky130_fd_sc_hd__dfxtp_1
*CAP
1 *1649:A3 0.000139482
2 *1857:A1 0.000134586
3 *2025:Q 0.000171234
4 *357:10 0.000274069
5 *357:8 0.000171234
6 *1649:A3 *1649:S0 5.3304e-05
7 *1857:A1 *457:50 1.39317e-05
8 *357:8 *416:22 0.000404038
9 *1649:A0 *357:8 6.6869e-05
10 *1649:A1 *1857:A1 0.000137651
11 *1649:A1 *357:8 3.47781e-05
12 *1830:A0 *357:8 0.000108662
13 *1857:S *1857:A1 5.67058e-05
14 *189:6 *1649:A3 0.000222661
15 *189:6 *1857:A1 0.000354116
16 *349:8 *357:8 4.98718e-06
17 *349:27 *1649:A3 5.63605e-05
18 *349:27 *1857:A1 9.88574e-06
*RES
1 *2025:Q *357:8 43.4271 
2 *357:8 *357:10 15 
3 *357:10 *1857:A1 27.4536 
4 *357:10 *1649:A3 26.6457 
*END

*D_NET *358 0.00164124
*CONN
*I *1657:A3 I *D sky130_fd_sc_hd__mux4_1
*I *1858:A1 I *D sky130_fd_sc_hd__mux2_1
*I *2026:Q O *D sky130_fd_sc_hd__dfxtp_1
*CAP
1 *1657:A3 0.000235287
2 *1858:A1 0.000123004
3 *2026:Q 0
4 *358:6 0.000358291
5 *1858:A1 *1831:A1 5.50106e-05
6 *1657:A0 *1657:A3 0.000162747
7 *1657:A0 *1858:A1 0.000132665
8 *1831:A0 *1858:A1 8.62876e-05
9 *196:8 *1657:A3 0.000138056
10 *275:131 *1657:A3 0.000122636
11 *275:131 *1858:A1 0.000218952
12 *277:42 *1657:A3 8.30566e-06
*RES
1 *2026:Q *358:6 38 
2 *358:6 *1858:A1 41.5836 
3 *358:6 *1657:A3 43.3857 
*END

*D_NET *359 0.00279703
*CONN
*I *1721:A0 I *D sky130_fd_sc_hd__mux4_1
*I *1860:A0 I *D sky130_fd_sc_hd__mux2_1
*I *2036:Q O *D sky130_fd_sc_hd__dfxtp_1
*CAP
1 *1721:A0 0.000384362
2 *1860:A0 0.000134694
3 *2036:Q 0.000276377
4 *359:10 0.000795433
5 *1721:A0 *1721:S0 4.08664e-05
6 *1721:A0 *375:23 2.35426e-05
7 *1721:A0 *407:449 5.67058e-05
8 *1721:A0 *407:517 0.000128723
9 *1721:A0 *416:194 0.000138593
10 *1860:A0 *1722:S 0.00011726
11 *359:10 *1722:S 2.76611e-06
12 *359:10 *430:8 0
13 *2036:D *359:10 2.93845e-05
14 *131:10 *1860:A0 0.000342394
15 *131:10 *359:10 0.000167443
16 *239:8 *1721:A0 0.000158488
*RES
1 *2036:Q *359:10 42.3086 
2 *359:10 *1860:A0 42.7229 
3 *359:10 *1721:A0 45.9129 
*END

*D_NET *360 0.00173031
*CONN
*I *1729:A0 I *D sky130_fd_sc_hd__mux4_1
*I *1861:A0 I *D sky130_fd_sc_hd__mux2_1
*I *2037:Q O *D sky130_fd_sc_hd__dfxtp_1
*CAP
1 *1729:A0 0.000147179
2 *1861:A0 0.000273879
3 *2037:Q 0
4 *360:6 0.000421058
5 *1729:A0 *368:10 6.4393e-05
6 *1729:A0 *376:29 0
7 *1861:A0 *1843:A1 4.6595e-05
8 *1861:A0 *1861:A1 5.3304e-05
9 *1861:A0 *376:10 5.67058e-05
10 *1861:A0 *376:29 0.000315852
11 *1843:S *1861:A0 0.00011775
12 *1861:S *1861:A0 0
13 *108:8 *1729:A0 0.000166522
14 *276:22 *1729:A0 0
15 *276:22 *1861:A0 0
16 *276:35 *1861:A0 6.70749e-05
17 *276:117 *1861:A0 0
*RES
1 *2037:Q *360:6 38 
2 *360:6 *1861:A0 45.1671 
3 *360:6 *1729:A0 41.6664 
*END

*D_NET *361 0.0035269
*CONN
*I *1862:A0 I *D sky130_fd_sc_hd__mux2_1
*I *1737:A0 I *D sky130_fd_sc_hd__mux4_1
*I *2038:Q O *D sky130_fd_sc_hd__dfxtp_1
*CAP
1 *1862:A0 0.000209765
2 *1737:A0 0.000464857
3 *2038:Q 0.000356991
4 *361:10 0.00103161
5 *1737:A0 *1737:A1 2.31591e-05
6 *1737:A0 *1737:A2 7.02666e-06
7 *1737:A0 *1737:A3 0.000158914
8 *1737:A0 *1737:S0 5.79559e-05
9 *1737:A0 *385:8 5.55172e-05
10 *1737:A0 *408:269 2.64616e-05
11 *1862:A0 *377:25 7.73901e-05
12 *1862:A0 *453:79 2.64616e-05
13 *1862:A0 *453:88 2.32101e-05
14 *1862:S *1862:A0 3.92407e-05
15 *109:10 *1862:A0 0.000237543
16 *109:10 *361:10 8.4047e-05
17 *273:67 *1862:A0 0.000513026
18 *273:67 *361:10 8.4047e-05
19 *274:55 *1862:A0 4.96717e-05
*RES
1 *2038:Q *361:10 42.6814 
2 *361:10 *1737:A0 45.0014 
3 *361:10 *1862:A0 45.9336 
*END

*D_NET *362 0.00177148
*CONN
*I *1745:A0 I *D sky130_fd_sc_hd__mux4_1
*I *1863:A0 I *D sky130_fd_sc_hd__mux2_1
*I *2039:Q O *D sky130_fd_sc_hd__dfxtp_1
*CAP
1 *1745:A0 7.25395e-05
2 *1863:A0 0.000140893
3 *2039:Q 0.000250317
4 *362:10 0.000463749
5 *1745:A0 *370:10 0.000141879
6 *1745:A0 *456:84 0.000185104
7 *362:10 *1845:A1 0
8 *362:10 *386:12 0.000179311
9 *362:10 *454:53 0
10 *362:10 *456:84 0.000169674
11 *1863:S *1863:A0 5.82823e-05
12 *2006:D *1863:A0 9.84851e-05
13 *110:8 *1745:A0 1.12487e-05
*RES
1 *2039:Q *362:10 42.3086 
2 *362:10 *1863:A0 41.0036 
3 *362:10 *1745:A0 40.61 
*END

*D_NET *363 0.00242681
*CONN
*I *1864:A0 I *D sky130_fd_sc_hd__mux2_1
*I *1634:A0 I *D sky130_fd_sc_hd__mux4_1
*I *2040:Q O *D sky130_fd_sc_hd__dfxtp_1
*CAP
1 *1864:A0 0
2 *1634:A0 0.000307028
3 *2040:Q 0.00012585
4 *363:27 0.000261201
5 *363:12 0.000769109
6 *363:8 0.00032673
7 *1634:A0 *1634:A3 5.34874e-05
8 *1634:A0 *1634:S0 4.38756e-05
9 *363:8 *1634:S1 6.48142e-05
10 *363:12 *1634:A3 1.94812e-05
11 *363:12 *379:29 1.42605e-05
12 *363:27 *426:32 8.16356e-05
13 *363:27 *455:55 0.000108477
14 *120:8 *363:8 0
15 *174:14 *363:8 7.80251e-05
16 *174:14 *363:27 0.000161097
17 *274:49 *363:12 1.1741e-05
*RES
1 *2040:Q *363:8 40.9621 
2 *363:8 *363:12 17.5271 
3 *363:12 *1634:A0 27.3293 
4 *363:12 *363:27 36.8357 
5 *363:27 *1864:A0 23 
*END

*D_NET *364 0.0015409
*CONN
*I *1642:A0 I *D sky130_fd_sc_hd__mux4_1
*I *1865:A0 I *D sky130_fd_sc_hd__mux2_1
*I *2041:Q O *D sky130_fd_sc_hd__dfxtp_1
*CAP
1 *1642:A0 0.000143817
2 *1865:A0 0.000187651
3 *2041:Q 0
4 *364:6 0.000331468
5 *1642:A0 *1642:A1 5.3304e-05
6 *1642:A0 *1970:CLK 6.48049e-05
7 *1642:A0 *429:12 0.00015954
8 *1642:A0 *429:73 5.33597e-05
9 *1865:A0 *1865:A1 5.67058e-05
10 *1865:A0 *1970:CLK 0.000140949
11 *1643:A1 *1642:A0 6.25829e-05
12 *181:14 *1865:A0 7.76364e-06
13 *182:8 *1642:A0 6.17437e-06
14 *269:26 *1865:A0 8.46456e-05
15 *276:117 *1642:A0 0.000102906
16 *276:117 *1865:A0 6.68587e-05
17 *276:123 *1865:A0 1.83667e-05
*RES
1 *2041:Q *364:6 38 
2 *364:6 *1865:A0 42.785 
3 *364:6 *1642:A0 42.2879 
*END

*D_NET *365 0.00366853
*CONN
*I *1650:A0 I *D sky130_fd_sc_hd__mux4_1
*I *1866:A0 I *D sky130_fd_sc_hd__mux2_1
*I *2042:Q O *D sky130_fd_sc_hd__dfxtp_1
*CAP
1 *1650:A0 0.000677243
2 *1866:A0 0.000390938
3 *2042:Q 8.47957e-05
4 *365:8 0.00115298
5 *1650:A0 *1650:A2 8.47944e-05
6 *1650:A0 *1650:A3 7.60076e-05
7 *1650:A0 *373:35 4.37027e-05
8 *1866:A0 *1866:A1 9.7231e-05
9 *1866:A0 *2096:A 9.5877e-05
10 *1866:A0 *427:21 0.000167443
11 *1866:A0 *427:43 0.000237534
12 *365:8 *427:43 5.3304e-05
13 *273:84 *1650:A0 7.48331e-05
14 *273:84 *1866:A0 0.000431852
*RES
1 *2042:Q *365:8 39.0979 
2 *365:8 *1866:A0 47.2593 
3 *365:8 *1650:A0 47.8186 
*END

*D_NET *366 0.00227307
*CONN
*I *1867:A0 I *D sky130_fd_sc_hd__mux2_1
*I *1658:A0 I *D sky130_fd_sc_hd__mux4_1
*I *2043:Q O *D sky130_fd_sc_hd__dfxtp_1
*CAP
1 *1867:A0 0
2 *1658:A0 0
3 *2043:Q 0
4 *366:25 0.000561826
5 *366:12 0.000302774
6 *366:4 0.0008646
7 *366:12 *436:129 5.81956e-05
8 *366:25 *407:311 0.000201574
9 *366:25 *427:94 8.62783e-05
10 *366:25 *436:129 1.14096e-05
11 *2043:D *366:25 0.00010013
12 *269:127 *366:12 0
13 *276:86 *366:25 8.62783e-05
*RES
1 *2043:Q *366:4 23 
2 *366:4 *366:12 35.2407 
3 *366:12 *1658:A0 23 
4 *366:4 *366:25 38.0164 
5 *366:25 *1867:A0 23 
*END

*D_NET *367 0.00220911
*CONN
*I *1833:A1 I *D sky130_fd_sc_hd__mux2_1
*I *1721:A1 I *D sky130_fd_sc_hd__mux4_1
*I *2003:Q O *D sky130_fd_sc_hd__dfxtp_1
*CAP
1 *1833:A1 0
2 *1721:A1 0
3 *2003:Q 0.000180955
4 *367:25 0.000100553
5 *367:14 0.000343296
6 *367:6 0.000624804
7 *367:6 *409:117 0.000219383
8 *367:14 *407:437 0.000108046
9 *367:14 *407:523 0
10 *367:14 *409:117 0.000224605
11 *367:25 *407:437 0.000140661
12 *269:12 *367:14 0.000120781
13 *273:27 *367:25 1.14452e-05
14 *278:98 *367:25 0.000134585
*RES
1 *2003:Q *367:6 25.5271 
2 *367:6 *367:14 37.25 
3 *367:14 *1721:A1 23 
4 *367:6 *367:25 33.6664 
5 *367:25 *1833:A1 23 
*END

*D_NET *368 0.00137962
*CONN
*I *1834:A1 I *D sky130_fd_sc_hd__mux2_1
*I *1729:A1 I *D sky130_fd_sc_hd__mux4_1
*I *2004:Q O *D sky130_fd_sc_hd__dfxtp_1
*CAP
1 *1834:A1 0.000299875
2 *1729:A1 0
3 *2004:Q 0.00016698
4 *368:10 0.000466855
5 *1834:A1 *1834:A0 5.67058e-05
6 *1834:A1 *384:10 5.41385e-05
7 *1834:A1 *407:265 0
8 *1834:A1 *431:12 0.000165918
9 *368:10 *384:10 0
10 *368:10 *407:281 0
11 *1729:A0 *368:10 6.4393e-05
12 *2004:D *368:10 5.67058e-05
13 *84:10 *1834:A1 0
14 *108:8 *1834:A1 3.884e-05
15 *108:8 *368:10 9.21347e-06
*RES
1 *2004:Q *368:10 40.8793 
2 *368:10 *1729:A1 38 
3 *368:10 *1834:A1 44.5664 
*END

*D_NET *369 0.00287555
*CONN
*I *1737:A1 I *D sky130_fd_sc_hd__mux4_1
*I *1835:A1 I *D sky130_fd_sc_hd__mux2_1
*I *2005:Q O *D sky130_fd_sc_hd__dfxtp_1
*CAP
1 *1737:A1 5.65311e-05
2 *1835:A1 0.000370302
3 *2005:Q 0.000168835
4 *369:10 0.000595669
5 *1737:A1 *1737:A3 5.3304e-05
6 *1737:A1 *385:8 2.94787e-05
7 *1835:A1 *1737:A3 5.94125e-05
8 *1835:A1 *1807:A1 0.000141869
9 *1835:A1 *377:10 0.0003216
10 *1835:A1 *419:14 4.50386e-05
11 *1835:A1 *453:57 0.000512977
12 *1835:A1 *453:70 0.000228042
13 *369:10 *407:325 2.93747e-05
14 *369:10 *453:70 0.000136486
15 *1737:A0 *1737:A1 2.31591e-05
16 *269:137 *1737:A1 0.000103469
*RES
1 *2005:Q *369:10 41.0036 
2 *369:10 *1835:A1 48.5643 
3 *369:10 *1737:A1 40.0507 
*END

*D_NET *370 0.00190937
*CONN
*I *1836:A1 I *D sky130_fd_sc_hd__mux2_1
*I *1745:A1 I *D sky130_fd_sc_hd__mux4_1
*I *2006:Q O *D sky130_fd_sc_hd__dfxtp_1
*CAP
1 *1836:A1 0.00023726
2 *1745:A1 8.66454e-05
3 *2006:Q 0.000104641
4 *370:10 0.000428546
5 *1745:A1 *1745:A2 0.000137651
6 *1836:A1 *1836:A0 1.21972e-05
7 *1836:A1 *454:49 6.343e-05
8 *1836:A1 *454:53 0
9 *1836:A1 *456:84 0.000179823
10 *370:10 *456:84 1.22803e-05
11 *1745:A0 *370:10 0.000141879
12 *2006:D *370:10 5.50106e-05
13 *110:8 *1836:A1 0.000135557
14 *110:8 *370:10 0.000167443
15 *269:71 *1836:A1 0.000135037
16 *269:77 *1836:A1 1.19692e-05
*RES
1 *2006:Q *370:10 40.8793 
2 *370:10 *1745:A1 39.5743 
3 *370:10 *1836:A1 43.6136 
*END

*D_NET *371 0.00252121
*CONN
*I *1837:A1 I *D sky130_fd_sc_hd__mux2_1
*I *1634:A1 I *D sky130_fd_sc_hd__mux4_1
*I *2007:Q O *D sky130_fd_sc_hd__dfxtp_1
*CAP
1 *1837:A1 0.000283975
2 *1634:A1 4.24639e-05
3 *2007:Q 0.000429175
4 *371:10 0.000755613
5 *1634:A1 *1634:A3 2.64616e-05
6 *1837:A1 *1634:S0 1.19796e-05
7 *1837:A1 *409:192 0.000185434
8 *1837:A1 *455:55 0
9 *1837:A1 *455:57 5.67058e-05
10 *1837:A1 *455:73 0.00014196
11 *371:10 *1634:S0 4.3407e-05
12 *371:10 *407:467 1.99785e-05
13 *111:8 *1837:A1 0.00038218
14 *111:8 *371:10 0.000141879
15 *135:8 *1837:A1 0
*RES
1 *2007:Q *371:10 43.8621 
2 *371:10 *1634:A1 38.6214 
3 *371:10 *1837:A1 45.4779 
*END

*D_NET *372 0.0014131
*CONN
*I *1838:A1 I *D sky130_fd_sc_hd__mux2_1
*I *1642:A1 I *D sky130_fd_sc_hd__mux4_1
*I *2008:Q O *D sky130_fd_sc_hd__dfxtp_1
*CAP
1 *1838:A1 0.00020516
2 *1642:A1 0.000267651
3 *2008:Q 0
4 *372:6 0.000472811
5 *1642:A1 *1642:S0 3.91386e-05
6 *1642:A1 *407:449 0.000119467
7 *1642:A1 *408:216 0
8 *1642:A1 *429:10 3.7122e-06
9 *1838:A1 *408:216 0
10 *1642:A0 *1642:A1 5.3304e-05
11 *1838:S *1838:A1 2.30292e-05
12 *182:8 *1642:A1 4.56101e-05
13 *183:8 *1838:A1 1.39956e-05
14 *276:117 *1642:A1 0.00012837
15 *276:117 *1838:A1 4.08537e-05
*RES
1 *2008:Q *372:6 38 
2 *372:6 *1642:A1 44.3386 
3 *372:6 *1838:A1 41.2521 
*END

*D_NET *373 0.00224729
*CONN
*I *1839:A1 I *D sky130_fd_sc_hd__mux2_1
*I *1650:A1 I *D sky130_fd_sc_hd__mux4_1
*I *2009:Q O *D sky130_fd_sc_hd__dfxtp_1
*CAP
1 *1839:A1 0
2 *1650:A1 0
3 *2009:Q 0.000219045
4 *373:35 0.00041483
5 *373:10 0.00041483
6 *373:8 0.000219045
7 *373:8 *389:8 6.93553e-05
8 *373:8 *407:355 0
9 *373:8 *457:95 3.70187e-05
10 *373:35 *1650:A3 0.000183782
11 *373:35 *1811:A1 0
12 *373:35 *457:85 4.44329e-05
13 *373:35 *457:95 0.000427662
14 *1650:A0 *373:35 4.37027e-05
15 *1811:S *373:8 7.13673e-05
16 *113:10 *373:35 0.000102222
17 *137:14 *373:8 0
*RES
1 *2009:Q *373:8 42.7229 
2 *373:8 *373:10 15 
3 *373:10 *1650:A1 23 
4 *373:10 *373:35 40.6471 
5 *373:35 *1839:A1 23 
*END

*D_NET *374 0.00339197
*CONN
*I *1840:A1 I *D sky130_fd_sc_hd__mux2_1
*I *1658:A1 I *D sky130_fd_sc_hd__mux4_1
*I *2010:Q O *D sky130_fd_sc_hd__dfxtp_1
*CAP
1 *1840:A1 0
2 *1658:A1 0
3 *2010:Q 0.000366127
4 *374:33 0.000173645
5 *374:20 0.000656323
6 *374:10 0.0011961
7 *374:10 *427:79 9.04602e-05
8 *374:20 *1658:A3 0.000186267
9 *374:20 *1658:S0 5.55172e-05
10 *374:20 *382:31 0.000290624
11 *374:20 *407:325 6.67764e-05
12 *374:33 *1840:A0 3.68205e-05
13 *374:33 *407:325 0
14 *374:33 *427:79 1.53468e-05
15 *2010:D *374:33 4.9054e-06
16 *114:10 *374:20 9.1253e-05
17 *114:10 *374:33 8.29264e-05
18 *269:127 *374:10 7.88828e-05
*RES
1 *2010:Q *374:10 29.0279 
2 *374:10 *374:20 41.5379 
3 *374:20 *1658:A1 23 
4 *374:10 *374:33 33.0036 
5 *374:33 *1840:A1 23 
*END

*D_NET *375 0.00142557
*CONN
*I *1721:A2 I *D sky130_fd_sc_hd__mux4_1
*I *1842:A0 I *D sky130_fd_sc_hd__mux2_1
*I *2011:Q O *D sky130_fd_sc_hd__dfxtp_1
*CAP
1 *1721:A2 0
2 *1842:A0 0
3 *2011:Q 0.000216915
4 *375:23 0.000302131
5 *375:8 0.000519046
6 *375:23 *1842:A1 9.41704e-05
7 *375:23 *383:14 0.000138718
8 *375:23 *408:146 3.3746e-05
9 *375:23 *416:194 7.42701e-05
10 *1721:A0 *375:23 2.35426e-05
11 *115:8 *375:8 2.30292e-05
*RES
1 *2011:Q *375:8 27.0807 
2 *375:8 *1842:A0 23 
3 *375:8 *375:23 34.7073 
4 *375:23 *1721:A2 23 
*END

*D_NET *376 0.00250145
*CONN
*I *1729:A2 I *D sky130_fd_sc_hd__mux4_1
*I *1843:A0 I *D sky130_fd_sc_hd__mux2_1
*I *2012:Q O *D sky130_fd_sc_hd__dfxtp_1
*CAP
1 *1729:A2 0
2 *1843:A0 0
3 *2012:Q 0.000142118
4 *376:29 0.000360663
5 *376:10 0.000502782
6 *376:29 *1806:A0 7.02666e-06
7 *376:29 *1843:A1 0.000274078
8 *376:29 *407:423 0
9 *1729:A0 *376:29 0
10 *1843:S *376:10 0
11 *1861:A0 *376:10 5.67058e-05
12 *1861:A0 *376:29 0.000315852
13 *1861:S *376:29 6.16439e-05
14 *108:8 *376:29 0
15 *116:16 *376:10 4.65917e-05
16 *269:8 *376:29 5.24393e-05
17 *269:12 *376:29 0.000389442
18 *269:61 *376:29 1.16872e-05
19 *276:22 *376:29 8.4047e-05
20 *276:35 *376:10 0.000196377
*RES
1 *2012:Q *376:10 27.35 
2 *376:10 *1843:A0 23 
3 *376:10 *376:29 40.6523 
4 *376:29 *1729:A2 23 
*END

*D_NET *377 0.00353248
*CONN
*I *1844:A0 I *D sky130_fd_sc_hd__mux2_1
*I *1737:A2 I *D sky130_fd_sc_hd__mux4_1
*I *2013:Q O *D sky130_fd_sc_hd__dfxtp_1
*CAP
1 *1844:A0 0
2 *1737:A2 1.97864e-05
3 *2013:Q 0.000519109
4 *377:25 0.000411032
5 *377:10 0.000949928
6 *377:10 *407:325 1.50445e-05
7 *377:10 *419:14 3.41749e-05
8 *377:10 *453:51 5.94125e-05
9 *377:25 *1844:A1 0.000170285
10 *377:25 *407:325 0.000171918
11 *377:25 *453:79 0.00014375
12 *1737:A0 *1737:A2 7.02666e-06
13 *1835:A1 *377:10 0.0003216
14 *1862:A0 *377:25 7.73901e-05
15 *1862:S *377:25 1.83564e-05
16 *109:10 *377:10 0.000186687
17 *109:10 *377:25 8.51432e-05
18 *274:55 *377:25 0.000292206
19 *274:61 *377:25 4.96303e-05
*RES
1 *2013:Q *377:10 48.9164 
2 *377:10 *1737:A2 38.2745 
3 *377:10 *377:25 27.5943 
4 *377:25 *1844:A0 23 
*END

*D_NET *378 0.00315895
*CONN
*I *1745:A2 I *D sky130_fd_sc_hd__mux4_1
*I *1845:A0 I *D sky130_fd_sc_hd__mux2_1
*I *2014:Q O *D sky130_fd_sc_hd__dfxtp_1
*CAP
1 *1745:A2 0.000345086
2 *1845:A0 0.000529166
3 *2014:Q 8.02792e-05
4 *378:8 0.000954531
5 *1745:A2 *407:289 0.000151368
6 *1745:A2 *407:293 0.000385463
7 *1745:A2 *407:399 5.3304e-05
8 *1845:A0 *1845:A1 0.000187129
9 *1845:A0 *455:102 0
10 *378:8 *455:102 0
11 *1745:A1 *1745:A2 0.000137651
12 *86:8 *1845:A0 0.000245743
13 *86:8 *378:8 5.21127e-05
14 *176:12 *1845:A0 3.71198e-05
*RES
1 *2014:Q *378:8 39.5536 
2 *378:8 *1845:A0 48.7714 
3 *378:8 *1745:A2 45.5866 
*END

*D_NET *379 0.00433153
*CONN
*I *1634:A2 I *D sky130_fd_sc_hd__mux4_1
*I *1846:A0 I *D sky130_fd_sc_hd__mux2_1
*I *2015:Q O *D sky130_fd_sc_hd__dfxtp_1
*CAP
1 *1634:A2 0
2 *1846:A0 0.000294511
3 *2015:Q 0.000222406
4 *379:29 0.000868561
5 *379:10 0.00116307
6 *379:8 0.000222406
7 *1846:A0 *1846:A1 0.000192022
8 *1846:A0 *455:73 1.24376e-05
9 *379:8 *387:12 0.000140958
10 *379:8 *416:43 0.000211681
11 *379:8 *455:73 3.47781e-05
12 *379:29 *455:55 0.000292846
13 *379:29 *455:73 4.08664e-05
14 *174:14 *379:29 0
15 *253:10 *379:8 8.67053e-05
16 *269:41 *379:29 0.000477628
17 *272:109 *379:8 2.26385e-05
18 *274:49 *379:29 1.01712e-05
19 *274:53 *379:29 1.36806e-05
20 *274:55 *1846:A0 9.8971e-06
21 *363:12 *379:29 1.42605e-05
*RES
1 *2015:Q *379:8 43.7793 
2 *379:8 *379:10 15 
3 *379:10 *1846:A0 27.4329 
4 *379:10 *379:29 43.1587 
5 *379:29 *1634:A2 23 
*END

*D_NET *380 0.00288657
*CONN
*I *1642:A2 I *D sky130_fd_sc_hd__mux4_1
*I *1847:A0 I *D sky130_fd_sc_hd__mux2_1
*I *2016:Q O *D sky130_fd_sc_hd__dfxtp_1
*CAP
1 *1642:A2 0
2 *1847:A0 0
3 *2016:Q 0
4 *380:27 0.00057543
5 *380:12 0.00021967
6 *380:4 0.0007951
7 *380:12 *2008:CLK 9.62666e-05
8 *380:12 *456:41 0.000141879
9 *380:12 *456:52 0.000247687
10 *380:27 *1642:A3 3.32734e-05
11 *380:27 *2041:CLK 7.67016e-06
12 *380:27 *407:463 0.000268001
13 *380:27 *408:207 0.000138718
14 *380:27 *408:216 1.14452e-05
15 *2041:D *380:27 3.17963e-05
16 *182:8 *380:27 1.70074e-05
17 *269:26 *380:12 5.26204e-05
18 *269:41 *380:12 0.000250007
19 *276:117 *380:27 0
*RES
1 *2016:Q *380:4 23 
2 *380:4 *380:12 37.1257 
3 *380:12 *1847:A0 23 
4 *380:4 *380:27 39.1039 
5 *380:27 *1642:A2 23 
*END

*D_NET *381 0.00387826
*CONN
*I *1650:A2 I *D sky130_fd_sc_hd__mux4_1
*I *1848:A0 I *D sky130_fd_sc_hd__mux2_1
*I *2017:Q O *D sky130_fd_sc_hd__dfxtp_1
*CAP
1 *1650:A2 0.000855409
2 *1848:A0 0.000325503
3 *2017:Q 0.000313587
4 *381:10 0.00118091
5 *381:8 0.000313587
6 *1650:A2 *1650:A3 0.000492106
7 *1650:A2 *1811:A1 0.000141954
8 *1650:A2 *1848:A1 1.14876e-05
9 *1650:A2 *457:95 1.32939e-05
10 *1848:A0 *1848:A1 0.000103248
11 *381:8 *389:8 0
12 *381:8 *457:95 0
13 *1650:A0 *1650:A2 8.47944e-05
14 *1811:S *381:8 0
15 *89:8 *381:8 4.23817e-05
16 *274:74 *381:8 0
*RES
1 *2017:Q *381:8 43.7793 
2 *381:8 *381:10 15 
3 *381:10 *1848:A0 28.1579 
4 *381:10 *1650:A2 38.1939 
*END

*D_NET *382 0.00404657
*CONN
*I *1658:A2 I *D sky130_fd_sc_hd__mux4_1
*I *1849:A0 I *D sky130_fd_sc_hd__mux2_1
*I *2018:Q O *D sky130_fd_sc_hd__dfxtp_1
*CAP
1 *1658:A2 0
2 *1849:A0 0
3 *2018:Q 0
4 *382:31 0.000700653
5 *382:12 0.000398761
6 *382:4 0.00109941
7 *382:12 *1849:A1 0.000315852
8 *382:31 *407:325 0.000136486
9 *382:31 *407:336 0.000188916
10 *382:31 *407:355 2.58197e-05
11 *382:31 *427:79 0.000665892
12 *1849:S *382:12 2.18506e-05
13 *90:8 *382:12 5.61414e-05
14 *269:107 *382:12 2.96051e-05
15 *269:127 *382:12 0.000116554
16 *273:84 *382:31 0
17 *274:61 *382:12 0
18 *274:74 *382:12 0
19 *374:20 *382:31 0.000290624
*RES
1 *2018:Q *382:4 23 
2 *382:4 *382:12 39.3836 
3 *382:12 *1849:A0 23 
4 *382:4 *382:31 43.5316 
5 *382:31 *1658:A2 23 
*END

*D_NET *383 0.00167622
*CONN
*I *1805:A1 I *D sky130_fd_sc_hd__mux2_1
*I *1721:A3 I *D sky130_fd_sc_hd__mux4_1
*I *1970:Q O *D sky130_fd_sc_hd__dfxtp_1
*CAP
1 *1805:A1 0
2 *1721:A3 0
3 *1970:Q 0.000140021
4 *383:14 0.000216685
5 *383:8 0.000356706
6 *383:14 *408:146 8.72778e-05
7 *383:14 *451:75 0.000246739
8 *383:14 *451:86 0.000163352
9 *1805:S *383:8 0.000303697
10 *83:8 *383:8 2.30292e-05
11 *375:23 *383:14 0.000138718
*RES
1 *1970:Q *383:8 26.5007 
2 *383:8 *383:14 35.4271 
3 *383:14 *1721:A3 23 
4 *383:8 *1805:A1 23 
*END

*D_NET *384 0.00260177
*CONN
*I *1729:A3 I *D sky130_fd_sc_hd__mux4_1
*I *1806:A1 I *D sky130_fd_sc_hd__mux2_1
*I *1971:Q O *D sky130_fd_sc_hd__dfxtp_1
*CAP
1 *1729:A3 0.000204863
2 *1806:A1 0
3 *1971:Q 0.000438164
4 *384:12 0.000204863
5 *384:10 0.000438164
6 *1729:A3 *1806:A0 0.000701013
7 *1729:A3 *407:281 0.000255756
8 *1729:A3 *407:415 0.000140259
9 *384:10 *431:12 7.45491e-05
10 *1806:S *1729:A3 1.14154e-05
11 *1834:A1 *384:10 5.41385e-05
12 *84:10 *384:10 0
13 *269:61 *1729:A3 5.55568e-05
14 *269:71 *1729:A3 2.30292e-05
15 *269:71 *384:10 0
16 *368:10 *384:10 0
*RES
1 *1971:Q *384:10 43.8621 
2 *384:10 *384:12 15 
3 *384:12 *1806:A1 23 
4 *384:12 *1729:A3 31.9071 
*END

*D_NET *385 0.00146996
*CONN
*I *1737:A3 I *D sky130_fd_sc_hd__mux4_1
*I *1807:A1 I *D sky130_fd_sc_hd__mux2_1
*I *1972:Q O *D sky130_fd_sc_hd__dfxtp_1
*CAP
1 *1737:A3 0.000206122
2 *1807:A1 7.92713e-05
3 *1972:Q 0.000158567
4 *385:8 0.00044396
5 *1737:A3 *1737:S0 5.56279e-05
6 *1737:A0 *1737:A3 0.000158914
7 *1737:A0 *385:8 5.55172e-05
8 *1737:A1 *1737:A3 5.3304e-05
9 *1737:A1 *385:8 2.94787e-05
10 *1835:A1 *1737:A3 5.94125e-05
11 *1835:A1 *1807:A1 0.000141869
12 *117:8 *1807:A1 0
13 *269:137 *1737:A3 2.43944e-05
14 *269:137 *385:8 3.52233e-06
*RES
1 *1972:Q *385:8 40.0507 
2 *385:8 *1807:A1 39.9057 
3 *385:8 *1737:A3 42.3293 
*END

*D_NET *386 0.00383306
*CONN
*I *1808:A1 I *D sky130_fd_sc_hd__mux2_1
*I *1745:A3 I *D sky130_fd_sc_hd__mux4_1
*I *1973:Q O *D sky130_fd_sc_hd__dfxtp_1
*CAP
1 *1808:A1 0.000371784
2 *1745:A3 0
3 *1973:Q 0.000462231
4 *386:14 0.000477661
5 *386:12 0.000568107
6 *1808:A1 *1744:S0 5.19048e-05
7 *1808:A1 *454:89 0.000264559
8 *1973:D *386:12 9.91798e-05
9 *2039:D *386:12 1.53528e-06
10 *183:10 *1808:A1 0.000358475
11 *183:10 *386:14 0.000354778
12 *273:46 *1808:A1 0.000214862
13 *273:46 *386:14 0.000354778
14 *276:53 *386:12 7.38929e-05
15 *362:10 *386:12 0.000179311
*RES
1 *1973:Q *386:12 45.9336 
2 *386:12 *386:14 4.72286 
3 *386:14 *1745:A3 38 
4 *386:14 *1808:A1 46.0786 
*END

*D_NET *387 0.00199189
*CONN
*I *1634:A3 I *D sky130_fd_sc_hd__mux4_1
*I *1809:A1 I *D sky130_fd_sc_hd__mux2_1
*I *1974:Q O *D sky130_fd_sc_hd__dfxtp_1
*CAP
1 *1634:A3 0.000275836
2 *1809:A1 0
3 *1974:Q 0
4 *387:12 0.000227509
5 *387:4 0.000503345
6 *1634:A3 *1634:S0 0.000135037
7 *387:12 *409:192 3.00678e-05
8 *1634:A0 *1634:A3 5.34874e-05
9 *1634:A1 *1634:A3 2.64616e-05
10 *253:10 *387:12 0.000138727
11 *274:49 *1634:A3 0.000440981
12 *363:12 *1634:A3 1.94812e-05
13 *379:8 *387:12 0.000140958
*RES
1 *1974:Q *387:4 23 
2 *387:4 *387:12 33.9564 
3 *387:12 *1809:A1 23 
4 *387:4 *1634:A3 30.4986 
*END

*D_NET *388 0.00181397
*CONN
*I *1642:A3 I *D sky130_fd_sc_hd__mux4_1
*I *1810:A1 I *D sky130_fd_sc_hd__mux2_1
*I *1975:Q O *D sky130_fd_sc_hd__dfxtp_1
*CAP
1 *1642:A3 0.000128871
2 *1810:A1 0.000208879
3 *1975:Q 0.00034716
4 *388:12 0.00033775
5 *388:10 0.00034716
6 *1642:A3 *407:463 0.000123944
7 *388:10 *407:463 0.000105165
8 *388:10 *408:207 0
9 *388:10 *429:46 0
10 *182:8 *1642:A3 9.46983e-05
11 *182:8 *1810:A1 6.40395e-05
12 *269:26 *388:10 2.30292e-05
13 *269:41 *388:10 0
14 *380:27 *1642:A3 3.32734e-05
*RES
1 *1975:Q *388:10 43.6964 
2 *388:10 *388:12 15 
3 *388:12 *1810:A1 27.1221 
4 *388:12 *1642:A3 26.48 
*END

*D_NET *389 0.00184943
*CONN
*I *1650:A3 I *D sky130_fd_sc_hd__mux4_1
*I *1811:A1 I *D sky130_fd_sc_hd__mux2_1
*I *1976:Q O *D sky130_fd_sc_hd__dfxtp_1
*CAP
1 *1650:A3 0.000166539
2 *1811:A1 6.72946e-05
3 *1976:Q 7.81711e-05
4 *389:10 0.000233833
5 *389:8 7.81711e-05
6 *1650:A3 *457:95 2.61526e-05
7 *1811:A1 *457:95 4.93223e-05
8 *389:8 *457:95 1.7992e-05
9 *1650:A0 *1650:A3 7.60076e-05
10 *1650:A2 *1650:A3 0.000492106
11 *1650:A2 *1811:A1 0.000141954
12 *1811:S *389:8 0.000168754
13 *373:8 *389:8 6.93553e-05
14 *373:35 *1650:A3 0.000183782
15 *373:35 *1811:A1 0
16 *381:8 *389:8 0
*RES
1 *1976:Q *389:8 40.61 
2 *389:8 *389:10 15 
3 *389:10 *1811:A1 25.0714 
4 *389:10 *1650:A3 29.5043 
*END

*D_NET *390 0.00164846
*CONN
*I *1658:A3 I *D sky130_fd_sc_hd__mux4_1
*I *1812:A1 I *D sky130_fd_sc_hd__mux2_1
*I *1977:Q O *D sky130_fd_sc_hd__dfxtp_1
*CAP
1 *1658:A3 0.000296885
2 *1812:A1 5.38554e-05
3 *1977:Q 0.000116698
4 *390:12 0.00035074
5 *390:10 0.000116698
6 *1658:A3 *1658:S0 5.56279e-05
7 *1658:A3 *436:133 5.3304e-05
8 *1812:A1 *436:133 9.67842e-05
9 *390:10 *436:129 0.000167443
10 *269:107 *390:10 1.22803e-05
11 *269:127 *390:10 0.000141879
12 *374:20 *1658:A3 0.000186267
*RES
1 *1977:Q *390:10 40.8793 
2 *390:10 *390:12 15 
3 *390:12 *1812:A1 24.0979 
4 *390:12 *1658:A3 29.5043 
*END

*D_NET *391 0.00240116
*CONN
*I *1814:A0 I *D sky130_fd_sc_hd__mux2_1
*I *1716:A0 I *D sky130_fd_sc_hd__mux4_1
*I *1978:Q O *D sky130_fd_sc_hd__dfxtp_1
*CAP
1 *1814:A0 0.000135236
2 *1716:A0 0.0002262
3 *1978:Q 0.000373
4 *391:10 0.000734436
5 *1716:A0 *1639:S0 4.06849e-05
6 *1716:A0 *1716:S0 3.70187e-05
7 *1716:A0 *411:134 7.27371e-05
8 *1716:A0 *451:141 0.000146216
9 *1814:A0 *422:18 0
10 *1814:A0 *451:141 7.95085e-05
11 *1814:A0 *451:143 7.13794e-05
12 *391:10 *2091:A 0.000241703
13 *91:10 *1814:A0 0.000188916
14 *263:95 *1716:A0 0
15 *263:95 *1814:A0 0
16 *287:27 *1716:A0 5.41288e-05
*RES
1 *1978:Q *391:10 43.5307 
2 *391:10 *1716:A0 43.8207 
3 *391:10 *1814:A0 42.0186 
*END

*D_NET *392 0.0015804
*CONN
*I *1726:A0 I *D sky130_fd_sc_hd__mux4_1
*I *1815:A0 I *D sky130_fd_sc_hd__mux2_1
*I *1979:Q O *D sky130_fd_sc_hd__dfxtp_1
*CAP
1 *1726:A0 0.000152498
2 *1815:A0 0
3 *1979:Q 0.000341708
4 *392:10 0.000494206
5 *1726:A0 *408:30 1.94522e-05
6 *392:10 *408:16 9.41704e-05
7 *392:10 *417:91 4.50607e-05
8 *1727:A2 *1726:A0 6.07826e-05
9 *1727:A2 *392:10 8.90658e-05
10 *1979:D *392:10 9.67842e-05
11 *28:12 *1726:A0 9.88575e-05
12 *28:12 *392:10 8.16356e-05
13 *242:8 *1726:A0 6.17437e-06
*RES
1 *1979:Q *392:10 43.7379 
2 *392:10 *1815:A0 38 
3 *392:10 *1726:A0 41.8529 
*END

*D_NET *393 0.00351124
*CONN
*I *1816:A0 I *D sky130_fd_sc_hd__mux2_1
*I *1732:A0 I *D sky130_fd_sc_hd__mux4_1
*I *1980:Q O *D sky130_fd_sc_hd__dfxtp_1
*CAP
1 *1816:A0 0
2 *1732:A0 0
3 *1980:Q 0.000187603
4 *393:27 0.00102751
5 *393:10 0.00121512
6 *393:10 *401:10 6.07611e-06
7 *393:10 *407:97 7.461e-05
8 *393:10 *433:93 0.000137651
9 *393:27 *401:10 4.07715e-05
10 *393:27 *407:89 0
11 *393:27 *407:97 1.83564e-05
12 *393:27 *408:431 6.96741e-05
13 *393:27 *408:433 5.99365e-05
14 *1732:A3 *393:27 0.00013395
15 *270:34 *393:27 0.000526319
16 *289:27 *393:27 1.36592e-05
17 *297:8 *393:10 0
*RES
1 *1980:Q *393:10 41.8321 
2 *393:10 *1732:A0 38 
3 *393:10 *393:27 32.2343 
4 *393:27 *1816:A0 23 
*END

*D_NET *394 0.00280992
*CONN
*I *1817:A0 I *D sky130_fd_sc_hd__mux2_1
*I *1740:A0 I *D sky130_fd_sc_hd__mux4_1
*I *1981:Q O *D sky130_fd_sc_hd__dfxtp_1
*CAP
1 *1817:A0 0.00059795
2 *1740:A0 0
3 *1981:Q 0.000115317
4 *394:12 0.000226083
5 *394:6 0.00093935
6 *1817:A0 *1817:A1 0.000487831
7 *1817:A0 *1963:CLK 9.5877e-05
8 *1817:A0 *408:547 0.000310647
9 *394:12 *407:167 0
10 *290:12 *394:12 0
11 *290:29 *1817:A0 2.13054e-05
12 *290:29 *394:6 1.55622e-05
*RES
1 *1981:Q *394:6 24.5743 
2 *394:6 *394:12 33.6664 
3 *394:12 *1740:A0 23 
4 *394:6 *1817:A0 35.2629 
*END

*D_NET *395 0.00171364
*CONN
*I *1818:A0 I *D sky130_fd_sc_hd__mux2_1
*I *1631:A0 I *D sky130_fd_sc_hd__mux4_1
*I *1982:Q O *D sky130_fd_sc_hd__dfxtp_1
*CAP
1 *1818:A0 0.000206822
2 *1631:A0 0
3 *1982:Q 0.000203522
4 *395:10 0.000410344
5 *1818:A0 *403:14 9.52677e-05
6 *1818:A0 *407:89 0
7 *1818:A0 *455:169 0.000360771
8 *395:10 *403:14 4.6318e-06
9 *395:10 *407:89 0
10 *1754:S *1818:A0 0.000319905
11 *39:8 *395:10 0
12 *95:10 *1818:A0 1.21972e-05
13 *262:115 *1818:A0 0
14 *266:71 *1818:A0 0
15 *266:71 *395:10 0
16 *291:29 *395:10 0.00010018
*RES
1 *1982:Q *395:10 41.3557 
2 *395:10 *1631:A0 38 
3 *395:10 *1818:A0 44.9186 
*END

*D_NET *396 0.00204236
*CONN
*I *1819:A0 I *D sky130_fd_sc_hd__mux2_1
*I *1637:A0 I *D sky130_fd_sc_hd__mux4_1
*I *1983:Q O *D sky130_fd_sc_hd__dfxtp_1
*CAP
1 *1819:A0 0.000216087
2 *1637:A0 8.8911e-05
3 *1983:Q 0.000203058
4 *396:14 0.000508056
5 *1637:A0 *1637:A1 0.000122185
6 *1637:A0 *407:97 5.3304e-05
7 *1819:A0 *407:97 8.82524e-05
8 *1819:A0 *456:134 0.000315386
9 *396:14 *407:97 2.80852e-05
10 *16:27 *396:14 2.18888e-05
11 *96:10 *1819:A0 0.000140927
12 *292:27 *1637:A0 9.6831e-05
13 *300:8 *396:14 0
14 *300:27 *1819:A0 0.000159389
*RES
1 *1983:Q *396:14 41.2936 
2 *396:14 *1637:A0 41.0036 
3 *396:14 *1819:A0 44.09 
*END

*D_NET *397 0.00110189
*CONN
*I *1820:A0 I *D sky130_fd_sc_hd__mux2_1
*I *1647:A0 I *D sky130_fd_sc_hd__mux4_1
*I *1984:Q O *D sky130_fd_sc_hd__dfxtp_1
*CAP
1 *1820:A0 0.000190224
2 *1647:A0 2.66831e-05
3 *1984:Q 0.000158322
4 *397:10 0.000375228
5 *1647:A0 *1647:A1 5.3304e-05
6 *1647:A0 *1647:S0 3.27248e-05
7 *1820:A0 *1647:A1 0
8 *1820:A0 *1957:CLK 0
9 *397:10 *1957:CLK 0
10 *397:10 *421:18 5.50106e-05
11 *70:10 *1820:A0 0
12 *97:8 *1820:A0 0
13 *266:49 *1820:A0 4.92689e-05
14 *266:49 *397:10 0.000161121
*RES
1 *1984:Q *397:10 40.8793 
2 *397:10 *1647:A0 38.6214 
3 *397:10 *1820:A0 40.9621 
*END

*D_NET *398 0.00256123
*CONN
*I *1821:A0 I *D sky130_fd_sc_hd__mux2_1
*I *1653:A0 I *D sky130_fd_sc_hd__mux4_1
*I *1985:Q O *D sky130_fd_sc_hd__dfxtp_1
*CAP
1 *1821:A0 0
2 *1653:A0 0
3 *1985:Q 0
4 *398:25 0.000753594
5 *398:12 0.000326379
6 *398:4 0.00107997
7 *398:12 *436:21 0
8 *398:25 *420:121 0.000107658
9 *398:25 *420:131 8.16356e-05
10 *398:25 *436:48 0.000163361
11 *270:66 *398:25 6.17437e-06
12 *294:27 *398:12 1.14452e-05
13 *302:29 *398:12 3.10046e-05
*RES
1 *1985:Q *398:4 23 
2 *398:4 *398:12 34.9093 
3 *398:12 *1653:A0 23 
4 *398:4 *398:25 40.5021 
5 *398:25 *1821:A0 23 
*END

*D_NET *399 0.0022006
*CONN
*I *1716:A1 I *D sky130_fd_sc_hd__mux4_1
*I *1750:A1 I *D sky130_fd_sc_hd__mux2_1
*I *1894:Q O *D sky130_fd_sc_hd__dfxtp_1
*CAP
1 *1716:A1 0.000319932
2 *1750:A1 0
3 *1894:Q 0.000480152
4 *399:10 0.000800084
5 *1716:A1 *407:265 0
6 *1716:A1 *411:134 0.000218962
7 *1716:A1 *451:127 0.000127272
8 *399:10 *407:265 0
9 *399:10 *451:127 1.14452e-05
10 *35:8 *399:10 0
11 *67:10 *1716:A1 0.000161121
12 *267:10 *1716:A1 8.16356e-05
*RES
1 *1894:Q *399:10 45.83 
2 *399:10 *1750:A1 38 
3 *399:10 *1716:A1 45.54 
*END

*D_NET *400 0.0024897
*CONN
*I *1751:A1 I *D sky130_fd_sc_hd__mux2_1
*I *1726:A1 I *D sky130_fd_sc_hd__mux4_1
*I *1895:Q O *D sky130_fd_sc_hd__dfxtp_1
*CAP
1 *1751:A1 0.000324808
2 *1726:A1 0.000185624
3 *1895:Q 0.000478656
4 *400:10 0.000989088
5 *1726:A1 *1913:CLK 0
6 *1726:A1 *452:10 0
7 *1751:A1 *1751:A0 5.50049e-05
8 *400:10 *442:8 0
9 *400:10 *452:10 0
10 *28:12 *1726:A1 0.000223043
11 *28:12 *1751:A1 0.000102732
12 *36:10 *1751:A1 0.000130745
13 *36:10 *400:10 0
*RES
1 *1895:Q *400:10 44.4629 
2 *400:10 *1726:A1 41.9357 
3 *400:10 *1751:A1 44.8564 
*END

*D_NET *401 0.00179255
*CONN
*I *1732:A1 I *D sky130_fd_sc_hd__mux4_1
*I *1752:A1 I *D sky130_fd_sc_hd__mux2_1
*I *1896:Q O *D sky130_fd_sc_hd__dfxtp_1
*CAP
1 *1732:A1 0
2 *1752:A1 0
3 *1896:Q 0.000200319
4 *401:26 0.000325558
5 *401:12 0.000325558
6 *401:10 0.000200319
7 *401:10 *407:89 0
8 *401:26 *1732:S0 1.00084e-05
9 *401:26 *407:97 0.000235195
10 *1732:A3 *401:26 0.000169679
11 *1788:A1 *401:10 4.3407e-05
12 *289:27 *401:26 0.000223692
13 *297:8 *401:10 1.19692e-05
14 *393:10 *401:10 6.07611e-06
15 *393:27 *401:10 4.07715e-05
*RES
1 *1896:Q *401:10 41.3557 
2 *401:10 *401:12 15 
3 *401:12 *401:26 38.1614 
4 *401:26 *1752:A1 23 
5 *401:12 *1732:A1 23 
*END

*D_NET *402 0.00224874
*CONN
*I *1753:A1 I *D sky130_fd_sc_hd__mux2_1
*I *1740:A1 I *D sky130_fd_sc_hd__mux4_1
*I *1897:Q O *D sky130_fd_sc_hd__dfxtp_1
*CAP
1 *1753:A1 8.72755e-05
2 *1740:A1 0.000175389
3 *1897:Q 0.000363369
4 *402:10 0.000626033
5 *1740:A1 *407:167 0
6 *1740:A1 *454:12 0
7 *402:10 *454:10 0
8 *1756:S *402:10 3.71251e-05
9 *38:8 *402:10 0
10 *70:10 *1740:A1 0
11 *70:10 *402:10 0
12 *262:51 *1753:A1 0.00044107
13 *262:51 *402:10 0
14 *270:113 *1753:A1 0.000400204
15 *270:127 *1740:A1 3.70094e-05
16 *270:127 *402:10 5.94125e-05
17 *298:12 *1740:A1 0
18 *298:12 *1753:A1 2.18506e-05
*RES
1 *1897:Q *402:10 43.2614 
2 *402:10 *1740:A1 40.61 
3 *402:10 *1753:A1 42.9093 
*END

*D_NET *403 0.000505355
*CONN
*I *1631:A1 I *D sky130_fd_sc_hd__mux4_1
*I *1754:A1 I *D sky130_fd_sc_hd__mux2_1
*I *1898:Q O *D sky130_fd_sc_hd__dfxtp_1
*CAP
1 *1631:A1 0
2 *1754:A1 0
3 *1898:Q 6.99389e-05
4 *403:14 0.000112446
5 *403:8 0.000182385
6 *1818:A0 *403:14 9.52677e-05
7 *39:8 *403:14 0
8 *266:71 *403:14 0
9 *299:27 *403:8 4.06849e-05
10 *395:10 *403:14 4.6318e-06
*RES
1 *1898:Q *403:8 24.595 
2 *403:8 *403:14 32.61 
3 *403:14 *1754:A1 23 
4 *403:8 *1631:A1 23 
*END

*D_NET *404 0.00292603
*CONN
*I *1637:A1 I *D sky130_fd_sc_hd__mux4_1
*I *1755:A1 I *D sky130_fd_sc_hd__mux2_1
*I *1899:Q O *D sky130_fd_sc_hd__dfxtp_1
*CAP
1 *1637:A1 0.000666676
2 *1755:A1 0.000229864
3 *1899:Q 7.17209e-05
4 *404:8 0.000968262
5 *1637:A1 *407:97 5.50049e-05
6 *1637:A1 *456:120 4.95442e-05
7 *1755:A1 *456:120 0.000340061
8 *404:8 *433:16 0.000100061
9 *1637:A0 *1637:A1 0.000122185
10 *1755:S *1755:A1 0.000100061
11 *40:8 *1755:A1 0
12 *96:10 *1637:A1 0.000194309
13 *292:27 *1637:A1 2.82811e-05
*RES
1 *1899:Q *404:8 39.0979 
2 *404:8 *1755:A1 44.0693 
3 *404:8 *1637:A1 49.2064 
*END

*D_NET *405 0.00157339
*CONN
*I *1756:A1 I *D sky130_fd_sc_hd__mux2_1
*I *1647:A1 I *D sky130_fd_sc_hd__mux4_1
*I *1900:Q O *D sky130_fd_sc_hd__dfxtp_1
*CAP
1 *1756:A1 0.000220717
2 *1647:A1 0.000321828
3 *1900:Q 0
4 *405:6 0.000542545
5 *1647:A1 *1647:S0 0.000176491
6 *1647:A1 *457:178 0
7 *1756:A1 *457:178 0
8 *1647:A0 *1647:A1 5.3304e-05
9 *1756:S *1756:A1 3.71251e-05
10 *1820:A0 *1647:A1 0
11 *97:8 *1647:A1 0.000114092
12 *266:49 *1647:A1 0.000107292
*RES
1 *1900:Q *405:6 38 
2 *405:6 *1647:A1 44.815 
3 *405:6 *1756:A1 41.2521 
*END

*D_NET *406 0.00116714
*CONN
*I *1757:A1 I *D sky130_fd_sc_hd__mux2_1
*I *1653:A1 I *D sky130_fd_sc_hd__mux4_1
*I *1901:Q O *D sky130_fd_sc_hd__dfxtp_1
*CAP
1 *1757:A1 0
2 *1653:A1 4.01155e-05
3 *1901:Q 4.64022e-05
4 *406:21 0.00043972
5 *406:6 0.000526238
6 *294:27 *406:21 0.000114664
*RES
1 *1901:Q *406:6 23.6214 
2 *406:6 *1653:A1 23.8493 
3 *406:6 *406:21 36.1107 
4 *406:21 *1757:A1 23 
*END

*D_NET *407 0.102036
*CONN
*I *1685:B I *D sky130_fd_sc_hd__and3_1
*I *1686:A1 I *D sky130_fd_sc_hd__a21oi_1
*I *1683:A I *D sky130_fd_sc_hd__nor2_1
*I *1682:A I *D sky130_fd_sc_hd__and2_1
*I *1718:S0 I *D sky130_fd_sc_hd__mux4_1
*I *1716:S0 I *D sky130_fd_sc_hd__mux4_1
*I *1729:S0 I *D sky130_fd_sc_hd__mux4_1
*I *1728:S0 I *D sky130_fd_sc_hd__mux4_1
*I *1721:S0 I *D sky130_fd_sc_hd__mux4_1
*I *1720:S0 I *D sky130_fd_sc_hd__mux4_1
*I *1641:S0 I *D sky130_fd_sc_hd__mux4_1
*I *1642:S0 I *D sky130_fd_sc_hd__mux4_1
*I *1633:S0 I *D sky130_fd_sc_hd__mux4_1
*I *1634:S0 I *D sky130_fd_sc_hd__mux4_1
*I *1736:S0 I *D sky130_fd_sc_hd__mux4_1
*I *1744:S0 I *D sky130_fd_sc_hd__mux4_1
*I *1745:S0 I *D sky130_fd_sc_hd__mux4_1
*I *1734:S0 I *D sky130_fd_sc_hd__mux4_1
*I *1649:S0 I *D sky130_fd_sc_hd__mux4_1
*I *1657:S0 I *D sky130_fd_sc_hd__mux4_1
*I *1650:S0 I *D sky130_fd_sc_hd__mux4_1
*I *1658:S0 I *D sky130_fd_sc_hd__mux4_1
*I *1737:S0 I *D sky130_fd_sc_hd__mux4_1
*I *1639:S0 I *D sky130_fd_sc_hd__mux4_1
*I *1726:S0 I *D sky130_fd_sc_hd__mux4_1
*I *1742:S0 I *D sky130_fd_sc_hd__mux4_1
*I *1629:S0 I *D sky130_fd_sc_hd__mux4_1
*I *1740:S0 I *D sky130_fd_sc_hd__mux4_1
*I *1647:S0 I *D sky130_fd_sc_hd__mux4_1
*I *1645:S0 I *D sky130_fd_sc_hd__mux4_1
*I *1655:S0 I *D sky130_fd_sc_hd__mux4_1
*I *1653:S0 I *D sky130_fd_sc_hd__mux4_1
*I *1631:S0 I *D sky130_fd_sc_hd__mux4_1
*I *1732:S0 I *D sky130_fd_sc_hd__mux4_1
*I *1637:S0 I *D sky130_fd_sc_hd__mux4_1
*I *1724:S0 I *D sky130_fd_sc_hd__mux4_1
*I *2027:Q O *D sky130_fd_sc_hd__dfrtp_4
*CAP
1 *1685:B 0.000222205
2 *1686:A1 0.000145274
3 *1683:A 0.000158893
4 *1682:A 0
5 *1718:S0 0.000103272
6 *1716:S0 7.39345e-05
7 *1729:S0 0
8 *1728:S0 0.000617371
9 *1721:S0 3.82378e-05
10 *1720:S0 0
11 *1641:S0 0.000512936
12 *1642:S0 4.27533e-05
13 *1633:S0 0
14 *1634:S0 0.000205826
15 *1736:S0 0
16 *1744:S0 0.000450663
17 *1745:S0 0
18 *1734:S0 0
19 *1649:S0 3.00574e-05
20 *1657:S0 0
21 *1650:S0 0
22 *1658:S0 1.5731e-05
23 *1737:S0 1.17716e-05
24 *1639:S0 0.00131856
25 *1726:S0 0
26 *1742:S0 0
27 *1629:S0 0
28 *1740:S0 3.02106e-05
29 *1647:S0 0.000627884
30 *1645:S0 0
31 *1655:S0 0
32 *1653:S0 0
33 *1631:S0 0
34 *1732:S0 4.69038e-05
35 *1637:S0 0
36 *1724:S0 0
37 *2027:Q 0
38 *407:624 0.000492675
39 *407:611 0.000495351
40 *407:546 0.000794099
41 *407:523 0.00203125
42 *407:517 0.000836074
43 *407:501 0.000593582
44 *407:477 0.00101625
45 *407:467 0.0017608
46 *407:463 0.00210005
47 *407:449 0.00174441
48 *407:439 0.000807525
49 *407:437 0.000759125
50 *407:427 0.0014094
51 *407:423 0.000881665
52 *407:415 0.000885849
53 *407:399 6.50563e-05
54 *407:386 0.000492838
55 *407:373 0.000968212
56 *407:355 0.000803231
57 *407:336 0.000934226
58 *407:325 0.00102062
59 *407:311 0.00203809
60 *407:295 0.00110247
61 *407:293 0.00229853
62 *407:289 0.00200553
63 *407:285 0.000779593
64 *407:281 0.000811935
65 *407:265 0.00233786
66 *407:261 0.00161595
67 *407:248 0.00234367
68 *407:234 0.00151042
69 *407:225 0.000627473
70 *407:221 0.000878108
71 *407:203 0.000711458
72 *407:167 0.00122895
73 *407:159 0.000760337
74 *407:139 0.000349913
75 *407:128 0.00076345
76 *407:97 0.000668534
77 *407:89 0.00153084
78 *407:75 0.000986808
79 *407:71 0.00192874
80 *407:69 0.00186321
81 *407:61 0.00156614
82 *407:57 0.00168947
83 *407:55 0.00131369
84 *407:51 0.000609083
85 *407:43 0.00146165
86 *407:20 0.00100154
87 *407:18 0.000574256
88 *407:12 0.00106182
89 *407:6 0.000465775
90 *407:4 0.000320881
91 *1647:S0 *1789:A0 0.00035335
92 *1683:A *1688:A 9.98891e-05
93 *1683:A *493:8 5.67058e-05
94 *1685:B *1688:A 3.91699e-05
95 *1685:B *408:570 0
96 *1685:B *408:574 0.000380342
97 *1685:B *409:16 3.55887e-05
98 *1686:A1 *1686:B1 5.41385e-05
99 *1716:S0 *411:134 0
100 *1716:S0 *451:141 0.000118174
101 *1728:S0 *408:142 0.00035923
102 *1740:S0 *1789:A0 1.21972e-05
103 *407:12 *1769:A0 1.72202e-05
104 *407:18 *1939:CLK 0.000221184
105 *407:43 *1947:CLK 5.3304e-05
106 *407:43 *452:150 0.000225155
107 *407:43 *454:141 0.000121249
108 *407:51 *410:49 0.00011411
109 *407:61 *1933:CLK 6.37845e-05
110 *407:61 *2073:A 3.54257e-05
111 *407:61 *421:10 6.99492e-05
112 *407:69 *408:484 0.000104536
113 *407:71 *408:469 9.9002e-05
114 *407:97 *408:443 0
115 *407:128 *408:501 4.93888e-05
116 *407:128 *420:12 0.000223043
117 *407:128 *420:105 0
118 *407:128 *420:121 0.000208809
119 *407:139 *408:484 0
120 *407:167 *454:12 8.02348e-05
121 *407:167 *454:14 0.000127263
122 *407:167 *454:16 0.000289044
123 *407:167 *454:20 0.000360895
124 *407:203 *410:49 4.41095e-05
125 *407:203 *410:53 4.38375e-05
126 *407:203 *410:57 0
127 *407:221 *1742:S1 0.000223906
128 *407:221 *1778:A1 0.000140259
129 *407:221 *1939:CLK 5.01986e-05
130 *407:221 *2094:A 0.000181801
131 *407:221 *408:70 0.000137651
132 *407:221 *425:44 0.000135011
133 *407:225 *1727:B1 0
134 *407:225 *1913:CLK 0.000100039
135 *407:225 *409:284 0.000141879
136 *407:225 *410:24 0
137 *407:225 *410:30 0
138 *407:225 *417:87 1.69564e-05
139 *407:225 *452:14 0.000111148
140 *407:225 *452:16 0.000260791
141 *407:225 *452:20 7.75736e-06
142 *407:234 *409:52 0.000158614
143 *407:234 *452:22 0.000107538
144 *407:234 *452:32 0.000286106
145 *407:248 *1716:S1 3.71369e-05
146 *407:248 *408:111 0.000128869
147 *407:248 *409:52 0.000311727
148 *407:248 *412:182 0
149 *407:265 *1804:A 0
150 *407:265 *411:76 0
151 *407:265 *411:94 0
152 *407:265 *411:111 0
153 *407:265 *411:134 0
154 *407:265 *416:96 0
155 *407:265 *450:32 0
156 *407:265 *451:141 0.000318429
157 *407:281 *1745:S1 3.3577e-05
158 *407:285 *408:216 4.54033e-05
159 *407:285 *408:239 2.13834e-05
160 *407:289 *1745:S1 6.17437e-06
161 *407:293 *2051:CLK 5.12328e-05
162 *407:293 *2097:A 1.94812e-05
163 *407:295 *416:43 0
164 *407:311 *2026:CLK 9.41704e-05
165 *407:311 *416:43 0
166 *407:311 *436:129 0.000119855
167 *407:325 *1840:A0 0
168 *407:325 *453:70 0.000149454
169 *407:355 *408:293 0
170 *407:355 *436:129 0
171 *407:355 *457:95 0
172 *407:373 *416:22 0.00060311
173 *407:373 *416:28 3.42537e-05
174 *407:373 *416:43 0
175 *407:373 *436:75 0.000576245
176 *407:386 *416:22 0.000685718
177 *407:386 *416:66 0.000733797
178 *407:386 *436:75 0.001047
179 *407:399 *454:53 5.94125e-05
180 *407:423 *430:75 1.59094e-05
181 *407:437 *430:67 6.33536e-05
182 *407:449 *416:194 0.000698582
183 *407:449 *429:10 5.03346e-05
184 *407:463 *2016:CLK 3.46673e-05
185 *407:463 *2041:CLK 2.30292e-05
186 *407:463 *408:207 9.06187e-05
187 *407:463 *408:216 3.82956e-05
188 *407:467 *2016:CLK 2.81409e-05
189 *407:477 *408:178 7.61206e-05
190 *407:477 *426:32 1.42006e-05
191 *407:477 *455:20 3.90238e-05
192 *407:477 *455:31 9.503e-05
193 *407:477 *455:42 0.000125802
194 *407:477 *455:55 8.68016e-06
195 *407:501 *1634:S1 0
196 *407:501 *408:158 0
197 *407:501 *426:83 4.3407e-05
198 *407:501 *456:41 0
199 *407:546 *451:44 2.11157e-05
200 *407:624 *1688:A 8.47448e-05
201 *1634:A0 *1634:S0 4.38756e-05
202 *1634:A3 *1634:S0 0.000135037
203 *1637:A0 *407:97 5.3304e-05
204 *1637:A1 *407:97 5.50049e-05
205 *1642:A1 *1642:S0 3.91386e-05
206 *1642:A1 *407:449 0.000119467
207 *1642:A3 *407:463 0.000123944
208 *1645:A3 *407:61 3.91386e-05
209 *1647:A0 *1647:S0 3.27248e-05
210 *1647:A1 *1647:S0 0.000176491
211 *1647:A3 *1647:S0 0
212 *1649:A3 *1649:S0 5.3304e-05
213 *1658:A3 *1658:S0 5.56279e-05
214 *1682:B *407:6 0.00014196
215 *1682:B *407:611 0.000231764
216 *1684:A *1686:A1 5.50106e-05
217 *1685:C *1685:B 0
218 *1687:B *1685:B 2.95125e-05
219 *1688:B *1683:A 0.00014196
220 *1716:A0 *1639:S0 4.06849e-05
221 *1716:A0 *1716:S0 3.70187e-05
222 *1716:A1 *407:265 0
223 *1716:A3 *407:248 2.81066e-05
224 *1719:A2 *407:234 5.94125e-05
225 *1719:A2 *407:248 0.000177038
226 *1721:A0 *1721:S0 4.08664e-05
227 *1721:A0 *407:449 5.67058e-05
228 *1721:A0 *407:517 0.000128723
229 *1728:A2 *1728:S0 1.6318e-05
230 *1729:A3 *407:281 0.000255756
231 *1729:A3 *407:415 0.000140259
232 *1732:A3 *1732:S0 5.56356e-05
233 *1736:A1 *407:477 9.1889e-05
234 *1737:A0 *1737:S0 5.79559e-05
235 *1737:A3 *1737:S0 5.56279e-05
236 *1740:A1 *407:167 0
237 *1742:A2 *407:55 0.000297037
238 *1742:A2 *407:57 5.94374e-05
239 *1745:A2 *407:289 0.000151368
240 *1745:A2 *407:293 0.000385463
241 *1745:A2 *407:399 5.3304e-05
242 *1765:S *407:139 0
243 *1769:A1 *407:12 1.32314e-05
244 *1769:A1 *407:18 0.000105849
245 *1772:A1 *407:203 1.01436e-05
246 *1786:A1 *407:265 1.69668e-05
247 *1789:S *1647:S0 3.81946e-05
248 *1806:S *407:281 0
249 *1808:A1 *1744:S0 5.19048e-05
250 *1818:A0 *407:89 0
251 *1819:A0 *407:97 8.82524e-05
252 *1834:A1 *407:265 0
253 *1837:A1 *1634:S0 1.19796e-05
254 *1855:A1 *407:477 1.98161e-05
255 *1862:S *407:325 0
256 *1878:A1 *407:234 8.26569e-05
257 *1933:D *407:61 4.52283e-05
258 *1949:D *407:51 0.000162955
259 *1962:D *1639:S0 0.000209922
260 *2016:D *407:463 3.7122e-06
261 *2016:D *407:467 7.41637e-05
262 *2026:D *407:311 0.000274028
263 *2037:D *407:423 4.23386e-05
264 *2043:D *407:311 0.00010013
265 *2051:D *407:293 4.56028e-05
266 *2061:D *407:437 0.000141648
267 *29:12 *407:43 0.000262797
268 *31:14 *407:51 9.28842e-05
269 *31:14 *407:203 0
270 *35:8 *407:265 0
271 *37:8 *407:89 0.000166281
272 *44:12 *407:43 3.83269e-05
273 *46:8 *407:159 5.56306e-05
274 *54:10 *407:203 0
275 *61:8 *407:386 0.000344356
276 *62:10 *407:43 0.000191148
277 *88:10 *407:501 0
278 *92:10 *407:225 5.21127e-05
279 *95:10 *407:128 8.4047e-05
280 *98:10 *407:128 0
281 *103:8 *407:501 0.000169683
282 *107:10 *407:437 0
283 *108:8 *407:265 0.000135557
284 *108:8 *407:423 0
285 *110:8 *407:399 2.96051e-05
286 *111:8 *1634:S0 0
287 *113:10 *407:355 0.000487434
288 *114:10 *407:325 2.01531e-05
289 *135:8 *1634:S0 0.000300108
290 *135:8 *407:477 0.000296026
291 *137:14 *407:355 0.000358951
292 *146:8 *407:295 0
293 *146:8 *407:373 0
294 *163:88 *407:159 0
295 *163:88 *407:167 0
296 *164:28 *407:159 0.000278634
297 *164:28 *407:167 5.19836e-05
298 *164:34 *407:159 2.64616e-05
299 *164:60 *407:203 0.000277705
300 *164:71 *407:203 0
301 *164:107 *407:248 0.000180036
302 *172:6 *407:69 0.000129522
303 *172:6 *407:71 0.000912384
304 *174:14 *407:501 0
305 *176:16 *407:203 0.000369054
306 *182:8 *1642:S0 2.30292e-05
307 *182:8 *407:449 3.58084e-06
308 *182:8 *407:463 1.38758e-05
309 *183:10 *1744:S0 0
310 *186:10 *1647:S0 1.94693e-05
311 *190:18 *407:69 0
312 *216:22 *1683:A 0
313 *216:37 *1685:B 0
314 *216:37 *407:624 0
315 *217:10 *1685:B 1.19796e-05
316 *217:10 *407:624 2.29192e-05
317 *220:8 *1685:B 9.17704e-05
318 *231:24 *1718:S0 5.3304e-05
319 *231:24 *407:234 0.000216712
320 *233:10 *407:248 0.000104325
321 *235:12 *1718:S0 5.94258e-05
322 *237:14 *407:546 2.33476e-05
323 *239:10 *407:427 0.000118174
324 *239:10 *407:437 0.000241346
325 *241:8 *1685:B 6.7177e-06
326 *259:8 *407:281 2.34039e-05
327 *259:12 *1744:S0 0.000789397
328 *259:12 *407:285 1.01436e-05
329 *262:22 *407:234 0.00011093
330 *262:115 *407:89 0.000652847
331 *262:115 *407:128 0.000136486
332 *262:130 *407:128 0.000796649
333 *263:26 *1639:S0 0.000114796
334 *263:32 *1639:S0 0.000267501
335 *263:55 *407:139 0
336 *263:110 *407:43 0.000226295
337 *264:95 *407:51 0.00024222
338 *264:95 *407:159 2.09226e-05
339 *264:123 *407:12 0.000136738
340 *266:19 *407:18 0.000299196
341 *266:19 *407:221 0.000184412
342 *266:19 *407:248 0.000705948
343 *266:35 *1647:S0 0.000150933
344 *266:35 *1740:S0 2.64616e-05
345 *266:49 *1647:S0 0.000250982
346 *266:83 *407:97 0
347 *267:47 *407:97 0
348 *267:71 *407:43 8.84481e-05
349 *267:85 *407:167 0
350 *269:8 *407:265 0
351 *269:8 *407:423 0
352 *269:12 *407:437 0
353 *269:12 *407:523 0
354 *269:41 *407:463 0
355 *269:61 *407:281 0.000166006
356 *269:61 *407:415 4.94073e-05
357 *269:71 *407:281 0.000317553
358 *269:137 *407:325 4.30666e-05
359 *270:10 *407:248 8.48406e-05
360 *270:89 *407:18 3.97296e-05
361 *272:74 *1744:S0 0.000124689
362 *272:109 *1634:S0 0
363 *272:109 *407:477 0
364 *273:8 *407:265 0
365 *273:12 *407:265 0
366 *273:27 *407:427 3.84694e-05
367 *273:27 *407:437 3.53893e-05
368 *273:46 *1744:S0 5.62433e-05
369 *273:46 *407:285 7.38842e-05
370 *274:20 *407:437 3.88504e-05
371 *274:127 *407:437 0.000141879
372 *275:34 *1641:S0 4.6595e-05
373 *275:34 *407:546 4.67488e-05
374 *275:44 *1641:S0 0.000575847
375 *275:80 *407:477 5.94125e-05
376 *276:22 *407:423 1.43908e-05
377 *276:53 *407:311 0.000351688
378 *276:143 *1728:S0 0.000393287
379 *276:143 *407:423 2.33479e-05
380 *277:38 *407:373 2.97713e-05
381 *277:42 *407:295 0.000152057
382 *277:42 *407:311 9.41556e-05
383 *278:88 *407:437 0.000135547
384 *278:98 *407:437 0
385 *278:98 *407:523 0.00113903
386 *278:98 *407:546 2.31209e-05
387 *287:12 *1639:S0 2.73039e-05
388 *287:27 *1639:S0 4.09244e-05
389 *287:27 *1716:S0 9.5877e-05
390 *287:27 *407:248 1.18735e-05
391 *289:27 *1732:S0 5.74491e-05
392 *290:12 *407:167 0
393 *291:29 *407:71 2.73537e-05
394 *291:29 *407:75 4.96717e-05
395 *291:29 *407:89 0.000191429
396 *294:27 *407:128 0.000106184
397 *299:27 *407:75 2.92911e-06
398 *300:8 *407:97 0
399 *304:8 *1685:B 0.00019747
400 *304:20 *407:221 3.59318e-05
401 *309:14 *407:69 0
402 *314:22 *407:55 0.000225399
403 *314:22 *407:203 1.01436e-05
404 *315:10 *407:203 5.26905e-05
405 *318:10 *407:139 0
406 *320:6 *407:43 3.58084e-06
407 *320:21 *407:43 2.42041e-05
408 *322:12 *407:57 2.13102e-05
409 *324:31 *1639:S0 8.68084e-05
410 *325:27 *407:69 0
411 *342:25 *407:295 1.01436e-05
412 *342:25 *407:373 0.000131735
413 *349:27 *1649:S0 1.59094e-05
414 *350:29 *407:293 1.83763e-05
415 *350:29 *407:295 0
416 *355:8 *407:477 1.12487e-05
417 *355:33 *407:501 3.31127e-05
418 *366:25 *407:311 0.000201574
419 *367:14 *407:437 0.000108046
420 *367:14 *407:523 0
421 *367:25 *407:437 0.000140661
422 *368:10 *407:281 0
423 *369:10 *407:325 2.93747e-05
424 *371:10 *1634:S0 4.3407e-05
425 *371:10 *407:467 1.99785e-05
426 *373:8 *407:355 0
427 *374:20 *1658:S0 5.55172e-05
428 *374:20 *407:325 6.67764e-05
429 *374:33 *407:325 0
430 *376:29 *407:423 0
431 *377:10 *407:325 1.50445e-05
432 *377:25 *407:325 0.000171918
433 *380:27 *407:463 0.000268001
434 *382:31 *407:325 0.000136486
435 *382:31 *407:336 0.000188916
436 *382:31 *407:355 2.58197e-05
437 *388:10 *407:463 0.000105165
438 *393:10 *407:97 7.461e-05
439 *393:27 *407:89 0
440 *393:27 *407:97 1.83564e-05
441 *394:12 *407:167 0
442 *395:10 *407:89 0
443 *396:14 *407:97 2.80852e-05
444 *399:10 *407:265 0
445 *401:10 *407:89 0
446 *401:26 *1732:S0 1.00084e-05
447 *401:26 *407:97 0.000235195
*RES
1 *2027:Q *407:4 23 
2 *407:4 *407:6 2.52714 
3 *407:6 *407:12 5.90357 
4 *407:12 *407:18 21.5457 
5 *407:18 *407:20 15 
6 *407:20 *1724:S0 23 
7 *407:20 *407:43 48.4564 
8 *407:43 *407:51 37.5193 
9 *407:51 *407:55 4.45357 
10 *407:55 *407:57 5.86214 
11 *407:57 *407:61 13.5057 
12 *407:61 *407:69 38.7621 
13 *407:69 *407:71 14.9143 
14 *407:71 *407:75 2.42357 
15 *407:75 *407:89 33.2907 
16 *407:89 *407:97 28.8371 
17 *407:97 *1637:S0 23 
18 *407:89 *1732:S0 39.4707 
19 *407:75 *1631:S0 23 
20 *407:71 *407:128 46.9236 
21 *407:128 *1653:S0 23 
22 *407:69 *407:139 36.1314 
23 *407:139 *1655:S0 23 
24 *407:61 *1645:S0 23 
25 *407:57 *407:159 49.7643 
26 *407:159 *407:167 27.5321 
27 *407:167 *1647:S0 39.7164 
28 *407:167 *1740:S0 23.6214 
29 *407:55 *407:203 44.4171 
30 *407:203 *1629:S0 23 
31 *407:51 *1742:S0 23 
32 *407:18 *407:221 37.0429 
33 *407:221 *407:225 29.5829 
34 *407:225 *1726:S0 23 
35 *407:12 *407:234 26.4136 
36 *407:234 *407:248 37.5786 
37 *407:248 *1639:S0 44.5014 
38 *407:248 *407:261 15 
39 *407:261 *407:265 42.26 
40 *407:265 *407:281 43.3607 
41 *407:281 *407:285 16.9057 
42 *407:285 *407:289 18.48 
43 *407:289 *407:293 36.1079 
44 *407:293 *407:295 4.37071 
45 *407:295 *407:311 49.7614 
46 *407:311 *407:325 49.4507 
47 *407:325 *1737:S0 38.6214 
48 *407:311 *407:336 2.61 
49 *407:336 *1658:S0 38.6214 
50 *407:336 *407:355 32.2757 
51 *407:355 *1650:S0 23 
52 *407:295 *1657:S0 38 
53 *407:293 *407:373 11.9521 
54 *407:373 *1649:S0 38.6214 
55 *407:373 *407:386 34.1607 
56 *407:386 *1734:S0 23 
57 *407:289 *407:399 31.4707 
58 *407:399 *1745:S0 23 
59 *407:285 *1744:S0 48.7093 
60 *407:265 *407:415 1.57429 
61 *407:415 *407:423 40.5021 
62 *407:423 *407:427 16.5536 
63 *407:427 *407:437 46.3229 
64 *407:437 *407:439 15 
65 *407:439 *407:449 15.5979 
66 *407:449 *407:463 48.6429 
67 *407:463 *407:467 21.815 
68 *407:467 *407:477 36.2529 
69 *407:477 *1736:S0 23 
70 *407:467 *1634:S0 43.5929 
71 *407:463 *407:501 41.3307 
72 *407:501 *1633:S0 23 
73 *407:449 *1642:S0 24.4707 
74 *407:439 *407:517 1.57429 
75 *407:517 *407:523 45.2871 
76 *407:523 *1641:S0 34.1029 
77 *407:523 *407:546 49.2557 
78 *407:546 *1720:S0 23 
79 *407:517 *1721:S0 23.6214 
80 *407:427 *1728:S0 48.8129 
81 *407:415 *1729:S0 23 
82 *407:261 *1716:S0 40.6514 
83 *407:234 *1718:S0 39.595 
84 *407:6 *1682:A 23 
85 *407:4 *407:611 19.4536 
86 *407:611 *1683:A 42.1843 
87 *407:611 *407:624 2.61 
88 *407:624 *1686:A1 40.0507 
89 *407:624 *1685:B 45.54 
*END

*D_NET *408 0.097768
*CONN
*I *1685:A I *D sky130_fd_sc_hd__and3_1
*I *1686:B1 I *D sky130_fd_sc_hd__a21oi_1
*I *1688:A I *D sky130_fd_sc_hd__xnor2_1
*I *1740:S1 I *D sky130_fd_sc_hd__mux4_1
*I *1724:S1 I *D sky130_fd_sc_hd__mux4_1
*I *1718:S1 I *D sky130_fd_sc_hd__mux4_1
*I *1629:S1 I *D sky130_fd_sc_hd__mux4_1
*I *1655:S1 I *D sky130_fd_sc_hd__mux4_1
*I *1647:S1 I *D sky130_fd_sc_hd__mux4_1
*I *1653:S1 I *D sky130_fd_sc_hd__mux4_1
*I *1645:S1 I *D sky130_fd_sc_hd__mux4_1
*I *1631:S1 I *D sky130_fd_sc_hd__mux4_1
*I *1732:S1 I *D sky130_fd_sc_hd__mux4_1
*I *1637:S1 I *D sky130_fd_sc_hd__mux4_1
*I *1734:S1 I *D sky130_fd_sc_hd__mux4_1
*I *1728:S1 I *D sky130_fd_sc_hd__mux4_1
*I *1721:S1 I *D sky130_fd_sc_hd__mux4_1
*I *1720:S1 I *D sky130_fd_sc_hd__mux4_1
*I *1641:S1 I *D sky130_fd_sc_hd__mux4_1
*I *1744:S1 I *D sky130_fd_sc_hd__mux4_1
*I *1639:S1 I *D sky130_fd_sc_hd__mux4_1
*I *1649:S1 I *D sky130_fd_sc_hd__mux4_1
*I *1657:S1 I *D sky130_fd_sc_hd__mux4_1
*I *1650:S1 I *D sky130_fd_sc_hd__mux4_1
*I *1658:S1 I *D sky130_fd_sc_hd__mux4_1
*I *1737:S1 I *D sky130_fd_sc_hd__mux4_1
*I *1745:S1 I *D sky130_fd_sc_hd__mux4_1
*I *1642:S1 I *D sky130_fd_sc_hd__mux4_1
*I *1634:S1 I *D sky130_fd_sc_hd__mux4_1
*I *1633:S1 I *D sky130_fd_sc_hd__mux4_1
*I *1736:S1 I *D sky130_fd_sc_hd__mux4_1
*I *1729:S1 I *D sky130_fd_sc_hd__mux4_1
*I *1716:S1 I *D sky130_fd_sc_hd__mux4_1
*I *1742:S1 I *D sky130_fd_sc_hd__mux4_1
*I *1726:S1 I *D sky130_fd_sc_hd__mux4_1
*I *2028:Q O *D sky130_fd_sc_hd__dfrtp_4
*CAP
1 *1685:A 2.97639e-05
2 *1686:B1 8.19665e-05
3 *1688:A 0.000313282
4 *1740:S1 0
5 *1724:S1 5.70606e-05
6 *1718:S1 0
7 *1629:S1 2.13348e-05
8 *1655:S1 0
9 *1647:S1 0.000505505
10 *1653:S1 0
11 *1645:S1 0
12 *1631:S1 0
13 *1732:S1 0
14 *1637:S1 0
15 *1734:S1 0.000153848
16 *1728:S1 0
17 *1721:S1 0
18 *1720:S1 0
19 *1641:S1 0
20 *1744:S1 2.48728e-05
21 *1639:S1 0
22 *1649:S1 5.27706e-05
23 *1657:S1 0
24 *1650:S1 0
25 *1658:S1 6.35368e-05
26 *1737:S1 0
27 *1745:S1 4.91565e-05
28 *1642:S1 0
29 *1634:S1 0.000404269
30 *1633:S1 0
31 *1736:S1 0
32 *1729:S1 0.000212523
33 *1716:S1 5.92258e-05
34 *1742:S1 0.00112721
35 *1726:S1 3.32826e-05
36 *2028:Q 0
37 *408:574 0.000596625
38 *408:570 0.000808204
39 *408:555 0.000246092
40 *408:547 0.00186161
41 *408:501 0.000807904
42 *408:493 0.00155752
43 *408:484 0.00107604
44 *408:469 0.000767685
45 *408:443 0.000623941
46 *408:433 0.000726806
47 *408:431 0.00150176
48 *408:421 0.00119511
49 *408:402 0.00130966
50 *408:396 0.00142383
51 *408:394 0.00145915
52 *408:384 0.00287881
53 *408:374 0.00139833
54 *408:355 0.000367106
55 *408:342 0.000194092
56 *408:322 0.000605144
57 *408:293 0.000725823
58 *408:278 0.00102596
59 *408:269 0.000685498
60 *408:257 0.00173542
61 *408:249 0.0014009
62 *408:247 0.00182534
63 *408:243 0.00199578
64 *408:239 0.00100398
65 *408:216 0.00174641
66 *408:207 0.00137887
67 *408:178 0.0010662
68 *408:158 0.00120413
69 *408:154 0.00137626
70 *408:150 0.00156208
71 *408:148 0.00169986
72 *408:146 0.00193246
73 *408:142 0.00102176
74 *408:134 0.00120666
75 *408:117 0.000879455
76 *408:111 0.0016167
77 *408:90 0.00219771
78 *408:80 0.000847662
79 *408:78 0.000817618
80 *408:70 0.000909282
81 *408:49 0.00181846
82 *408:45 0.00228162
83 *408:30 0.000802537
84 *408:16 0.000686311
85 *408:4 0.000679953
86 *1629:S1 *455:136 1.01436e-05
87 *1634:S1 *426:83 0
88 *1647:S1 *409:263 0
89 *1685:A *409:16 5.67058e-05
90 *1724:S1 *1947:CLK 5.12254e-05
91 *1729:S1 *1806:A0 6.17437e-06
92 *1734:S1 *434:12 8.26569e-05
93 *1742:S1 *2094:A 1.41129e-05
94 *1742:S1 *425:16 3.54446e-05
95 *1742:S1 *425:26 0.000113719
96 *1742:S1 *425:40 9.1724e-05
97 *1744:S1 *456:84 0
98 *408:16 *417:91 0.000150882
99 *408:30 *1913:CLK 0.000397716
100 *408:30 *452:14 2.472e-05
101 *408:45 *452:14 2.13834e-05
102 *408:45 *452:16 8.4047e-05
103 *408:49 *409:38 0.000219873
104 *408:49 *409:52 0.000125216
105 *408:49 *452:16 0.000750147
106 *408:49 *452:20 5.80848e-05
107 *408:70 *410:30 0
108 *408:70 *452:20 7.24504e-05
109 *408:78 *410:30 0
110 *408:78 *452:20 0.000107548
111 *408:78 *452:22 0.000300108
112 *408:78 *452:32 0.000167443
113 *408:80 *416:120 0.000138178
114 *408:90 *411:126 1.62648e-05
115 *408:90 *416:96 3.58262e-05
116 *408:90 *416:105 5.25997e-05
117 *408:90 *416:120 7.73301e-05
118 *408:90 *450:196 0.000103097
119 *408:111 *412:133 0.000216721
120 *408:111 *412:158 4.51974e-05
121 *408:111 *450:18 0.000169721
122 *408:111 *450:22 0.000192087
123 *408:111 *450:96 1.22803e-05
124 *408:111 *450:107 0.000127672
125 *408:111 *450:118 6.88452e-05
126 *408:111 *450:131 6.7177e-06
127 *408:111 *450:161 5.56203e-05
128 *408:111 *451:111 2.69307e-05
129 *408:111 *452:32 0
130 *408:134 *431:61 5.50049e-05
131 *408:142 *416:184 0.000819433
132 *408:142 *416:194 0.000237534
133 *408:146 *416:194 6.48142e-05
134 *408:146 *451:66 0
135 *408:146 *451:75 0
136 *408:148 *1869:A0 2.98648e-05
137 *408:154 *1828:A1 0.000272468
138 *408:178 *455:20 8.22421e-06
139 *408:207 *429:46 0.000506685
140 *408:216 *429:121 0
141 *408:239 *454:53 0.000141879
142 *408:239 *456:84 0
143 *408:247 *2022:CLK 0.000218503
144 *408:249 *416:43 0.000452948
145 *408:257 *416:43 2.33476e-05
146 *408:269 *453:90 0.000765702
147 *408:322 *456:84 0.000441394
148 *408:322 *456:177 0
149 *408:342 *429:46 0
150 *408:355 *430:14 0.000271382
151 *408:384 *2052:CLK 5.2894e-05
152 *408:384 *455:136 0.000219873
153 *408:402 *434:12 2.60152e-05
154 *408:402 *436:69 0
155 *408:421 *2087:A 1.19796e-05
156 *408:421 *434:12 5.12254e-05
157 *408:431 *1779:A1 0.000143348
158 *408:431 *453:164 0.000371059
159 *408:443 *456:120 1.6873e-05
160 *408:469 *1937:CLK 0.000424851
161 *408:469 *420:105 0.00021967
162 *408:469 *433:122 0.0001927
163 *408:484 *2090:A 0.000398503
164 *408:547 *1955:CLK 4.50844e-05
165 *408:547 *1963:CLK 9.24795e-06
166 *408:555 *1897:CLK 0.000218943
167 *408:555 *424:71 8.62876e-05
168 *408:570 *409:8 0
169 *408:570 *409:16 0
170 *408:570 *417:91 0.000139346
171 *1629:A1 *408:394 9.13843e-05
172 *1629:A3 *408:394 5.78606e-05
173 *1642:A1 *408:216 0
174 *1655:A2 *408:394 0
175 *1683:A *1688:A 9.98891e-05
176 *1685:B *1688:A 3.91699e-05
177 *1685:B *408:570 0
178 *1685:B *408:574 0.000380342
179 *1686:A1 *1686:B1 5.41385e-05
180 *1726:A0 *408:30 1.94522e-05
181 *1727:A2 *408:16 6.16439e-05
182 *1727:A2 *408:30 0.00031842
183 *1728:S0 *408:142 0.00035923
184 *1731:A1 *408:570 0.000270682
185 *1737:A0 *408:269 2.64616e-05
186 *1744:A3 *408:243 9.87414e-05
187 *1744:A3 *408:247 3.16665e-05
188 *1770:S *408:402 7.75329e-06
189 *1775:S *408:402 0.000127896
190 *1779:A0 *408:421 0.000222104
191 *1780:A0 *1742:S1 0.000168224
192 *1787:S *408:547 2.4732e-05
193 *1792:A1 *1647:S1 0
194 *1813:D *408:90 0.000192087
195 *1817:A0 *408:547 0.000310647
196 *1838:A1 *408:216 0
197 *1855:A1 *408:178 4.05745e-05
198 *1863:S *408:216 0.000139647
199 *1870:S *408:134 6.17437e-06
200 *1950:D *408:384 1.4721e-05
201 *1963:D *408:547 0.00021541
202 *2020:D *408:134 0.000271425
203 *2022:D *408:247 0.000108972
204 *2052:D *408:384 0.000114563
205 *2053:D *1742:S1 5.2426e-05
206 *2056:D *408:394 0.000203531
207 *28:12 *408:16 1.62015e-05
208 *28:12 *408:30 0
209 *28:12 *408:570 0.000487443
210 *31:14 *408:555 0
211 *37:8 *408:443 0.00014376
212 *58:8 *408:402 0.000320967
213 *58:8 *408:484 0.00012838
214 *61:8 *408:421 0
215 *62:10 *1742:S1 0.000139352
216 *68:8 *408:547 0.000216714
217 *75:18 *408:322 0
218 *96:10 *408:443 0.000141869
219 *97:8 *1647:S1 0
220 *98:10 *408:501 2.93335e-05
221 *112:8 *408:216 0.000114092
222 *120:8 *1634:S1 0
223 *133:10 *408:269 0.000384805
224 *136:8 *408:207 8.16253e-05
225 *139:10 *408:355 0
226 *141:8 *408:178 4.99867e-05
227 *163:114 *1688:A 0
228 *163:114 *408:574 0
229 *174:8 *408:178 0.00018262
230 *174:14 *1634:S1 0.00076189
231 *174:14 *408:158 0.000276775
232 *176:12 *408:322 0.00133587
233 *176:16 *408:384 3.99192e-05
234 *181:14 *408:342 0
235 *183:10 *408:239 0.00040411
236 *183:10 *408:322 0
237 *184:10 *1647:S1 5.20202e-05
238 *184:10 *408:484 4.6318e-06
239 *184:10 *408:493 0.000193324
240 *186:10 *1647:S1 0
241 *188:10 *408:247 4.37586e-06
242 *190:12 *408:402 0
243 *190:18 *408:402 9.94477e-05
244 *190:18 *408:484 0.000191139
245 *191:6 *408:501 0.000403458
246 *193:10 *408:394 5.33724e-05
247 *196:8 *408:278 6.99492e-05
248 *231:45 *408:394 9.32308e-06
249 *231:80 *408:484 0
250 *235:12 *408:384 0.000170538
251 *241:8 *408:574 4.08537e-05
252 *242:8 *408:30 6.12864e-05
253 *245:10 *408:134 0.000128466
254 *253:10 *1649:S1 2.22183e-05
255 *253:10 *1734:S1 5.36457e-05
256 *253:10 *408:249 0.000320082
257 *253:10 *408:257 6.10551e-06
258 *253:10 *408:402 9.67823e-05
259 *254:8 *408:555 0
260 *259:8 *1745:S1 2.93747e-05
261 *259:12 *408:239 8.4047e-05
262 *262:22 *408:49 0.000146226
263 *262:22 *408:111 1.27424e-05
264 *262:92 *408:443 0
265 *262:115 *408:443 7.68285e-05
266 *262:115 *408:469 2.3508e-05
267 *264:30 *408:421 1.21972e-05
268 *264:123 *408:78 0.000435933
269 *265:34 *1629:S1 2.84912e-05
270 *266:19 *408:45 0
271 *266:19 *408:49 0
272 *266:19 *408:90 9.84171e-05
273 *266:19 *408:111 6.73994e-05
274 *266:31 *408:30 2.472e-05
275 *266:31 *408:45 2.22183e-05
276 *266:35 *408:555 4.9662e-05
277 *266:61 *1647:S1 0
278 *268:10 *408:111 0.000136486
279 *268:27 *408:111 1.22803e-05
280 *268:48 *408:111 7.91596e-05
281 *269:41 *408:216 0
282 *269:71 *408:216 0
283 *269:71 *408:239 0.000301116
284 *269:77 *408:239 6.99782e-05
285 *270:34 *408:431 6.9805e-05
286 *270:47 *408:469 9.19665e-05
287 *270:89 *408:80 0.00042646
288 *270:89 *408:90 0.00042645
289 *270:105 *408:547 0.000189071
290 *270:113 *408:555 0
291 *270:149 *408:45 4.18957e-05
292 *270:149 *408:547 0.000107502
293 *272:48 *408:148 0.000337642
294 *272:48 *408:150 0.000219873
295 *272:48 *408:154 0.000345176
296 *273:46 *408:216 0
297 *273:67 *408:269 0.00016994
298 *273:84 *408:293 0.00104522
299 *274:10 *408:111 0.000430922
300 *275:16 *408:134 0.00019095
301 *275:30 *408:142 0.000616017
302 *275:30 *408:146 0.000786872
303 *275:30 *408:355 0
304 *275:80 *408:178 5.3304e-05
305 *276:12 *408:111 0.000186427
306 *276:16 *408:111 0.000919859
307 *276:53 *408:216 0.000115013
308 *276:117 *408:207 0
309 *276:117 *408:216 0
310 *276:123 *408:207 0
311 *276:143 *408:142 0
312 *277:38 *408:249 0
313 *277:60 *408:249 0
314 *277:92 *408:134 0.00019747
315 *277:92 *408:355 6.17437e-06
316 *277:100 *408:148 5.41385e-05
317 *277:100 *408:355 0.000141154
318 *278:47 *408:269 0.000291113
319 *288:12 *408:30 1.70074e-05
320 *289:27 *408:443 6.25829e-05
321 *292:27 *408:443 2.8183e-05
322 *296:12 *408:30 6.07611e-06
323 *296:12 *408:45 0.000112538
324 *300:27 *408:443 1.63467e-05
325 *307:27 *408:384 3.27401e-05
326 *310:8 *408:402 0
327 *310:27 *408:394 0.000112219
328 *314:12 *1742:S1 4.9662e-05
329 *319:23 *408:78 9.41704e-05
330 *321:29 *408:421 0.000186369
331 *323:29 *1629:S1 2.60152e-05
332 *323:29 *408:384 4.96264e-05
333 *323:29 *408:394 1.16872e-05
334 *325:12 *408:484 0
335 *325:27 *408:484 0.000138718
336 *325:27 *408:493 1.14452e-05
337 *327:6 *408:384 3.16784e-05
338 *327:25 *408:384 9.69279e-05
339 *328:10 *1742:S1 5.3304e-05
340 *331:6 *408:394 3.70553e-06
341 *334:25 *408:402 2.55771e-05
342 *337:10 *408:178 0
343 *346:29 *1744:S1 6.48142e-05
344 *346:29 *408:239 0.000108681
345 *348:8 *408:342 0
346 *348:27 *408:342 3.31127e-05
347 *349:27 *1649:S1 1.69668e-05
348 *349:27 *408:249 2.76611e-06
349 *353:25 *408:178 4.21594e-06
350 *355:33 *408:158 2.22079e-05
351 *355:33 *408:178 0.000124747
352 *363:8 *1634:S1 6.48142e-05
353 *375:23 *408:146 3.3746e-05
354 *380:27 *408:207 0.000138718
355 *380:27 *408:216 1.14452e-05
356 *383:14 *408:146 8.72778e-05
357 *388:10 *408:207 0
358 *392:10 *408:16 9.41704e-05
359 *393:27 *408:431 6.96741e-05
360 *393:27 *408:433 5.99365e-05
361 *407:69 *408:484 0.000104536
362 *407:71 *408:469 9.9002e-05
363 *407:97 *408:443 0
364 *407:128 *408:501 4.93888e-05
365 *407:139 *408:484 0
366 *407:221 *1742:S1 0.000223906
367 *407:221 *408:70 0.000137651
368 *407:248 *1716:S1 3.71369e-05
369 *407:248 *408:111 0.000128869
370 *407:281 *1745:S1 3.3577e-05
371 *407:285 *408:216 4.54033e-05
372 *407:285 *408:239 2.13834e-05
373 *407:289 *1745:S1 6.17437e-06
374 *407:355 *408:293 0
375 *407:463 *408:207 9.06187e-05
376 *407:463 *408:216 3.82956e-05
377 *407:477 *408:178 7.61206e-05
378 *407:501 *1634:S1 0
379 *407:501 *408:158 0
380 *407:624 *1688:A 8.47448e-05
*RES
1 *2028:Q *408:4 23 
2 *408:4 *408:16 47.5686 
3 *408:16 *408:30 42.0557 
4 *408:30 *1726:S1 38.6214 
5 *408:30 *408:45 4.43286 
6 *408:45 *408:49 26.0614 
7 *408:49 *1742:S1 41.9329 
8 *408:49 *408:70 18.8321 
9 *408:70 *408:78 44.3343 
10 *408:78 *408:80 5.77929 
11 *408:80 *408:90 30.2664 
12 *408:90 *1716:S1 24.0979 
13 *408:90 *408:111 47.9564 
14 *408:111 *408:117 17.4236 
15 *408:117 *1729:S1 26.5007 
16 *408:117 *408:134 41.8071 
17 *408:134 *408:142 34.6371 
18 *408:142 *408:146 25.3571 
19 *408:146 *408:148 17.2964 
20 *408:148 *408:150 4.43286 
21 *408:150 *408:154 28.0086 
22 *408:154 *408:158 18.6664 
23 *408:158 *408:178 40.1597 
24 *408:178 *1736:S1 38 
25 *408:158 *1633:S1 23 
26 *408:154 *1634:S1 48.3571 
27 *408:150 *408:207 26.1236 
28 *408:207 *1642:S1 38 
29 *408:207 *408:216 17.4 
30 *408:216 *1745:S1 39.0979 
31 *408:216 *408:239 44.7486 
32 *408:239 *408:243 18.0036 
33 *408:243 *408:247 30.8671 
34 *408:247 *408:249 13.5264 
35 *408:249 *408:257 18.4379 
36 *408:257 *408:269 34.72 
37 *408:269 *1737:S1 23 
38 *408:257 *408:278 18.9564 
39 *408:278 *1658:S1 24.0979 
40 *408:278 *408:293 45.805 
41 *408:293 *1650:S1 23 
42 *408:249 *1657:S1 38 
43 *408:247 *1649:S1 39.4707 
44 *408:243 *408:322 47.7521 
45 *408:322 *1639:S1 23 
46 *408:239 *1744:S1 38.8493 
47 *408:148 *408:342 33.6664 
48 *408:342 *1641:S1 23 
49 *408:146 *408:355 36.67 
50 *408:355 *1720:S1 23 
51 *408:142 *1721:S1 38 
52 *408:134 *1728:S1 23 
53 *408:80 *408:374 15 
54 *408:374 *408:384 37.2057 
55 *408:384 *408:394 36.0457 
56 *408:394 *408:396 15 
57 *408:396 *408:402 12.8843 
58 *408:402 *1734:S1 41.3557 
59 *408:402 *408:421 38.8243 
60 *408:421 *408:431 26.2893 
61 *408:431 *408:433 2.05071 
62 *408:433 *408:443 42.3043 
63 *408:443 *1637:S1 23 
64 *408:433 *1732:S1 23 
65 *408:431 *408:469 48.1664 
66 *408:469 *1631:S1 23 
67 *408:396 *408:484 48.8086 
68 *408:484 *1645:S1 38 
69 *408:484 *408:493 5.42714 
70 *408:493 *408:501 30.08 
71 *408:501 *1653:S1 23 
72 *408:493 *1647:S1 46.9486 
73 *408:394 *1655:S1 23 
74 *408:384 *1629:S1 38.8493 
75 *408:374 *1718:S1 23 
76 *408:70 *1724:S1 39.0979 
77 *408:45 *408:547 38.9664 
78 *408:547 *408:555 35.1164 
79 *408:555 *1740:S1 23 
80 *408:4 *408:570 42.0143 
81 *408:570 *408:574 20.075 
82 *408:574 *1688:A 44.5457 
83 *408:574 *1686:B1 39.5743 
84 *408:570 *1685:A 24.1186 
*END

*D_NET *409 0.0558581
*CONN
*I *1689:A I *D sky130_fd_sc_hd__and2_1
*I *1727:A1 I *D sky130_fd_sc_hd__o21a_1
*I *1741:A I *D sky130_fd_sc_hd__or2_1
*I *1648:A1 I *D sky130_fd_sc_hd__o21a_1
*I *1654:A I *D sky130_fd_sc_hd__or2_1
*I *1632:A1 I *D sky130_fd_sc_hd__o21a_1
*I *1733:A I *D sky130_fd_sc_hd__or2_1
*I *1638:A I *D sky130_fd_sc_hd__or2_1
*I *1651:S I *D sky130_fd_sc_hd__mux2_1
*I *1659:S I *D sky130_fd_sc_hd__mux2_1
*I *1635:S I *D sky130_fd_sc_hd__mux2_1
*I *1738:S I *D sky130_fd_sc_hd__mux2_1
*I *1622:A I *D sky130_fd_sc_hd__inv_2
*I *1730:S I *D sky130_fd_sc_hd__mux2_1
*I *1643:S I *D sky130_fd_sc_hd__mux2_1
*I *1722:S I *D sky130_fd_sc_hd__mux2_1
*I *1746:S I *D sky130_fd_sc_hd__mux2_1
*I *1717:A I *D sky130_fd_sc_hd__or2_1
*I *1690:A I *D sky130_fd_sc_hd__nor2_1
*I *1692:A I *D sky130_fd_sc_hd__xnor2_1
*I *2029:Q O *D sky130_fd_sc_hd__dfrtp_4
*CAP
1 *1689:A 0
2 *1727:A1 0
3 *1741:A 0
4 *1648:A1 0
5 *1654:A 0
6 *1632:A1 0
7 *1733:A 0
8 *1638:A 4.03084e-05
9 *1651:S 9.37445e-05
10 *1659:S 0
11 *1635:S 0.000132598
12 *1738:S 0.000157173
13 *1622:A 6.70534e-05
14 *1730:S 0
15 *1643:S 0
16 *1722:S 0.000331836
17 *1746:S 0
18 *1717:A 0
19 *1690:A 0.000128564
20 *1692:A 0
21 *2029:Q 0
22 *409:297 0.000484831
23 *409:284 6.05938e-05
24 *409:263 0.000224583
25 *409:255 0.000991739
26 *409:237 0.000729878
27 *409:192 0.000738291
28 *409:180 0.00124278
29 *409:176 0.00151222
30 *409:174 0.00186032
31 *409:172 0.0012042
32 *409:166 0.00194708
33 *409:160 0.00157055
34 *409:154 0.00194842
35 *409:148 0.00109388
36 *409:133 0.00136922
37 *409:117 0.000694566
38 *409:98 0.00168529
39 *409:94 0.000725028
40 *409:90 0.00102631
41 *409:73 0.00130488
42 *409:63 0.00274144
43 *409:52 0.00158734
44 *409:38 0.00206866
45 *409:32 0.000917461
46 *409:16 0.000501789
47 *409:8 0.00120098
48 *409:4 0.000757713
49 *1622:A *425:26 6.7177e-06
50 *1622:A *452:156 0
51 *1635:S *455:94 0.000114683
52 *1638:A *1943:CLK 9.84794e-05
53 *1722:S *430:8 0.000249909
54 *1722:S *430:67 0.000130433
55 *1738:S *1974:CLK 0.00031495
56 *409:8 *2028:RESET_B 0
57 *409:8 *489:8 0
58 *409:16 *415:12 0
59 *409:32 *410:22 0.000140464
60 *409:32 *417:6 9.5877e-05
61 *409:32 *417:8 8.52481e-05
62 *409:38 *417:8 0.000182832
63 *409:38 *417:12 9.41704e-05
64 *409:52 *1938:CLK 0.00042645
65 *409:52 *422:8 0.000163343
66 *409:52 *452:20 0
67 *409:63 *452:32 0.00137371
68 *409:73 *411:70 0.000269781
69 *409:73 *411:74 0.000159907
70 *409:73 *452:32 8.62876e-05
71 *409:90 *1709:B 5.3304e-05
72 *409:90 *1749:A_N 1.94812e-05
73 *409:90 *411:43 0.000216721
74 *409:90 *411:64 0.00026917
75 *409:90 *411:153 0.000111852
76 *409:90 *412:62 6.7177e-06
77 *409:90 *412:106 2.62931e-05
78 *409:90 *414:29 0
79 *409:90 *416:180 0
80 *409:94 *1841:A_N 0.000141954
81 *409:98 *416:180 0
82 *409:98 *416:184 0
83 *409:98 *430:67 0.000451094
84 *409:117 *1860:A1 0.000184805
85 *409:117 *2003:CLK 0.000187129
86 *409:133 *425:8 0.000100733
87 *409:148 *425:75 0
88 *409:148 *452:156 0
89 *409:160 *410:49 0.00011872
90 *409:160 *410:53 9.22856e-05
91 *409:160 *410:57 4.6318e-06
92 *409:160 *424:71 0
93 *409:160 *454:16 4.6318e-06
94 *409:160 *454:20 0.000218327
95 *409:160 *454:22 0.000121718
96 *409:160 *454:26 3.98859e-05
97 *409:160 *454:28 0
98 *409:166 *2056:CLK 0
99 *409:166 *434:72 0
100 *409:166 *455:145 0
101 *409:166 *455:160 0
102 *409:172 *1773:A0 0.000166522
103 *409:172 *1943:CLK 0
104 *409:172 *434:72 0
105 *409:174 *1773:A0 0.000283642
106 *409:174 *455:102 0
107 *409:174 *456:92 0.000564498
108 *409:176 *455:102 0
109 *409:180 *428:23 0
110 *409:180 *455:102 0
111 *409:192 *455:57 2.18409e-05
112 *409:192 *455:73 0.000154372
113 *409:192 *455:94 2.93845e-05
114 *409:237 *1775:A0 0.000140259
115 *409:255 *410:96 0.000173442
116 *409:255 *424:71 0
117 *409:255 *454:16 5.20202e-05
118 *409:284 *417:87 7.03766e-05
119 *409:297 *2028:RESET_B 0
120 *409:297 *2029:RESET_B 0.000135344
121 *1647:S1 *409:263 0
122 *1648:A2 *409:255 5.50106e-05
123 *1648:A2 *409:263 1.72202e-05
124 *1685:A *409:16 5.67058e-05
125 *1685:B *409:16 3.55887e-05
126 *1685:C *409:16 9.0543e-05
127 *1687:B *409:16 0
128 *1689:B *409:16 0
129 *1690:B *1690:A 0.000187129
130 *1691:B *409:297 9.63918e-05
131 *1692:B *409:16 9.84851e-05
132 *1719:A2 *409:52 2.64616e-05
133 *1719:A2 *409:63 2.02872e-05
134 *1722:A1 *1722:S 0.000148698
135 *1731:B2 *409:133 0.000151718
136 *1747:B2 *1622:A 0
137 *1747:B2 *409:148 0
138 *1775:A1 *409:237 0.000271476
139 *1775:S *409:237 2.18409e-05
140 *1796:S *409:148 0.000243083
141 *1837:A1 *409:192 0.000185434
142 *1860:A0 *1722:S 0.00011726
143 *1878:A1 *409:52 0.000431852
144 *1880:S *409:160 0.000108682
145 *1974:D *409:192 0.000147908
146 *2003:D *409:117 1.74843e-05
147 *28:12 *409:8 0
148 *47:8 *409:166 8.16253e-05
149 *48:8 *409:174 0
150 *54:10 *409:160 0
151 *78:10 *409:255 5.67058e-05
152 *106:8 *409:180 0
153 *111:8 *409:180 0
154 *111:8 *409:192 0.000108487
155 *118:8 *409:176 0
156 *118:8 *409:180 0
157 *124:8 *409:98 0.000189806
158 *126:8 *409:176 0
159 *131:10 *409:117 0.000135037
160 *151:8 *409:166 0
161 *152:10 *409:174 2.96369e-05
162 *158:8 *409:176 0
163 *163:8 *1622:A 1.14452e-05
164 *163:16 *1622:A 1.01436e-05
165 *172:6 *409:160 2.93747e-05
166 *172:6 *409:166 0.000288308
167 *174:14 *1635:S 0.000313255
168 *178:8 *1638:A 6.17437e-06
169 *187:10 *409:263 0
170 *197:14 *409:166 0
171 *197:14 *409:174 0
172 *197:14 *409:176 0
173 *197:14 *409:180 0
174 *197:20 *409:166 0
175 *219:6 *1690:A 4.94192e-05
176 *219:6 *409:16 1.40958e-05
177 *231:24 *409:52 0.000218943
178 *231:94 *409:166 3.84797e-05
179 *231:94 *409:172 0.00010757
180 *231:94 *409:174 0
181 *239:8 *1722:S 4.96717e-05
182 *239:10 *409:63 0.000145844
183 *239:10 *409:73 3.83778e-05
184 *244:8 *409:98 0.000177018
185 *246:10 *409:90 0.000244228
186 *249:10 *1638:A 7.53384e-06
187 *249:10 *409:172 0.000128056
188 *253:8 *1738:S 1.03836e-05
189 *253:8 *409:192 0.00048285
190 *255:10 *409:148 0.000476726
191 *260:8 *409:73 3.22879e-05
192 *261:8 *409:90 4.83592e-05
193 *262:22 *409:63 0.000133556
194 *262:81 *409:73 0.00010655
195 *263:120 *409:133 0.000268074
196 *264:8 *409:63 0.00109203
197 *265:85 *409:166 0.000114656
198 *266:19 *409:38 7.03317e-05
199 *266:19 *409:52 0.0012768
200 *266:53 *409:263 0.00014196
201 *267:73 *409:148 0.000283831
202 *267:73 *409:154 0.000215083
203 *267:73 *409:255 0.000441065
204 *267:85 *409:255 5.50106e-05
205 *270:16 *409:52 1.23293e-05
206 *271:17 *409:90 0.000201176
207 *271:19 *409:90 0.00019682
208 *272:84 *409:176 0
209 *272:109 *409:192 0.000453335
210 *273:52 *1635:S 0.000313488
211 *273:52 *409:192 4.17736e-05
212 *273:54 *409:192 0.000400204
213 *274:49 *409:192 0.000105159
214 *275:30 *409:98 0
215 *276:143 *409:98 0.000555024
216 *277:86 *409:90 0
217 *277:86 *409:98 0.000325715
218 *277:92 *409:98 2.61699e-05
219 *323:14 *409:166 0
220 *328:10 *409:52 0.000155059
221 *330:12 *409:160 8.3962e-05
222 *359:10 *1722:S 2.76611e-06
223 *367:6 *409:117 0.000219383
224 *367:14 *409:117 0.000224605
225 *387:12 *409:192 3.00678e-05
226 *407:225 *409:284 0.000141879
227 *407:234 *409:52 0.000158614
228 *407:248 *409:52 0.000311727
229 *408:49 *409:38 0.000219873
230 *408:49 *409:52 0.000125216
231 *408:570 *409:8 0
232 *408:570 *409:16 0
*RES
1 *2029:Q *409:4 23 
2 *409:4 *409:8 19.7229 
3 *409:8 *409:16 22.6436 
4 *409:16 *1692:A 23 
5 *409:16 *1690:A 26.48 
6 *409:8 *409:32 22.7679 
7 *409:32 *409:38 20.9657 
8 *409:38 *409:52 44.9114 
9 *409:52 *1717:A 23 
10 *409:52 *409:63 34.0779 
11 *409:63 *409:73 37.8271 
12 *409:73 *1746:S 23 
13 *409:63 *409:90 48.3736 
14 *409:90 *409:94 16.5743 
15 *409:94 *409:98 32.7521 
16 *409:98 *1722:S 47.0314 
17 *409:98 *409:117 29.4793 
18 *409:117 *1643:S 23 
19 *409:94 *1730:S 23 
20 *409:38 *409:133 39.6736 
21 *409:133 *1622:A 39.2014 
22 *409:133 *409:148 29.9971 
23 *409:148 *409:154 21.8357 
24 *409:154 *409:160 31.965 
25 *409:160 *409:166 32.6279 
26 *409:166 *409:172 8.65857 
27 *409:172 *409:174 17.4 
28 *409:174 *409:176 17.0479 
29 *409:176 *409:180 23.5964 
30 *409:180 *409:192 48.2286 
31 *409:192 *1738:S 26.9564 
32 *409:180 *1635:S 29.3593 
33 *409:176 *1659:S 38 
34 *409:174 *1651:S 39.5743 
35 *409:172 *1638:A 39.0979 
36 *409:166 *409:237 27.5321 
37 *409:237 *1733:A 23 
38 *409:160 *1632:A1 23 
39 *409:154 *409:255 30.5357 
40 *409:255 *409:263 34.6607 
41 *409:263 *1654:A 23 
42 *409:255 *1648:A1 23 
43 *409:148 *1741:A 23 
44 *409:32 *409:284 31.9057 
45 *409:284 *1727:A1 23 
46 *409:4 *409:297 39.425 
47 *409:297 *1689:A 23 
*END

*D_NET *410 0.0272781
*CONN
*I *1694:A I *D sky130_fd_sc_hd__nand2_1
*I *1693:A I *D sky130_fd_sc_hd__nor2_1
*I *1696:A I *D sky130_fd_sc_hd__xnor2_1
*I *1727:B1 I *D sky130_fd_sc_hd__o21a_1
*I *1623:A I *D sky130_fd_sc_hd__inv_2
*I *1743:B1 I *D sky130_fd_sc_hd__o21a_1
*I *1656:B1 I *D sky130_fd_sc_hd__o21a_1
*I *1648:B1 I *D sky130_fd_sc_hd__o21a_1
*I *1632:B1 I *D sky130_fd_sc_hd__o21a_1
*I *1640:B1 I *D sky130_fd_sc_hd__o21a_1
*I *1735:B1 I *D sky130_fd_sc_hd__o21a_1
*I *1719:B1 I *D sky130_fd_sc_hd__o21a_1
*I *2030:Q O *D sky130_fd_sc_hd__dfrtp_4
*CAP
1 *1694:A 0.000328722
2 *1693:A 3.80122e-05
3 *1696:A 0
4 *1727:B1 0.000116734
5 *1623:A 0
6 *1743:B1 0
7 *1656:B1 0
8 *1648:B1 0
9 *1632:B1 0
10 *1640:B1 0
11 *1735:B1 0.00017613
12 *1719:B1 0
13 *2030:Q 5.15388e-05
14 *410:117 3.71928e-05
15 *410:96 0.000542776
16 *410:88 0.000914765
17 *410:72 0.000204461
18 *410:57 0.00103475
19 *410:53 0.000878895
20 *410:49 0.00118152
21 *410:43 0.00104238
22 *410:39 0.00135769
23 *410:30 0.000989591
24 *410:24 0.00199676
25 *410:22 0.00107552
26 *410:16 0.00110411
27 *410:10 0.000539943
28 *410:8 0.000592613
29 *1727:B1 *417:87 0.000163361
30 *410:8 *446:151 9.84794e-05
31 *410:10 *2029:CLK 0.00015954
32 *410:10 *417:108 5.94125e-05
33 *410:10 *490:10 3.31683e-05
34 *410:16 *417:108 0.000195248
35 *410:22 *417:6 1.94812e-05
36 *410:39 *416:169 0.000478647
37 *410:43 *425:26 1.88687e-05
38 *410:49 *425:26 0.000140259
39 *410:57 *454:28 0
40 *410:88 *2055:CLK 0.000171296
41 *410:88 *421:82 5.50106e-05
42 *410:96 *421:10 8.67978e-05
43 *410:96 *421:78 0.00018835
44 *410:117 *452:156 2.96154e-05
45 *1656:A1 *410:88 0.000148688
46 *1687:B *410:22 0.000182832
47 *1691:B *410:10 0
48 *1691:B *410:16 0
49 *1694:B *1694:A 0.000162559
50 *1719:A2 *410:30 5.50049e-05
51 *1727:A2 *1727:B1 3.70187e-05
52 *1731:B2 *410:39 0.000294877
53 *1739:B2 *1735:B1 7.42621e-05
54 *1739:B2 *410:72 4.5051e-05
55 *1743:A2 *410:43 2.93845e-05
56 *1762:S *410:49 0.000314953
57 *1772:A1 *410:57 0.000459629
58 *1772:S *410:57 6.02277e-06
59 *1880:S *410:57 0
60 *1949:D *410:49 0.000206435
61 *2055:D *410:88 0.000146207
62 *28:12 *1727:B1 0
63 *28:12 *410:24 0
64 *51:8 *410:30 0.000114083
65 *54:10 *410:49 0
66 *59:8 *410:30 0.000150077
67 *163:8 *410:117 2.96154e-05
68 *163:16 *410:43 2.02872e-05
69 *163:44 *1735:B1 0.00073928
70 *163:44 *410:72 0.000260653
71 *163:73 *410:88 0.000452245
72 *163:108 *410:117 4.6318e-06
73 *164:8 *410:39 5.50106e-05
74 *164:8 *410:43 0.000349824
75 *164:60 *410:53 0.000144158
76 *164:73 *410:72 2.64616e-05
77 *164:86 *410:72 0.000194318
78 *187:10 *410:96 2.93845e-05
79 *194:12 *410:96 0.000323876
80 *197:20 *410:96 0.000654629
81 *221:8 *1693:A 5.3304e-05
82 *221:12 *1694:A 2.71291e-05
83 *221:12 *410:10 9.3813e-05
84 *224:6 *1694:A 5.67058e-05
85 *231:51 *410:57 0
86 *231:107 *410:57 0
87 *243:8 *1727:B1 9.28842e-05
88 *243:8 *410:24 8.51329e-05
89 *246:10 *410:24 3.70187e-05
90 *246:10 *410:30 0.00182266
91 *264:8 *410:30 0
92 *264:26 *410:57 4.55681e-05
93 *264:95 *410:49 0.000526324
94 *264:123 *410:30 0
95 *265:34 *410:72 0.000246757
96 *265:85 *410:96 6.00136e-06
97 *270:30 *1735:B1 0.000868002
98 *270:30 *410:72 0.000395901
99 *306:8 *410:49 0
100 *307:12 *410:57 4.23714e-05
101 *314:22 *410:49 0
102 *315:10 *410:57 0.000125413
103 *330:12 *410:49 4.86964e-05
104 *330:12 *410:53 0.000133316
105 *330:29 *410:88 2.64616e-05
106 *407:51 *410:49 0.00011411
107 *407:203 *410:49 4.41095e-05
108 *407:203 *410:53 4.38375e-05
109 *407:203 *410:57 0
110 *407:225 *1727:B1 0
111 *407:225 *410:24 0
112 *407:225 *410:30 0
113 *408:70 *410:30 0
114 *408:78 *410:30 0
115 *409:32 *410:22 0.000140464
116 *409:160 *410:49 0.00011872
117 *409:160 *410:53 9.22856e-05
118 *409:160 *410:57 4.6318e-06
119 *409:255 *410:96 0.000173442
*RES
1 *2030:Q *410:8 39.0979 
2 *410:8 *410:10 5.42714 
3 *410:10 *410:16 20.6136 
4 *410:16 *410:22 29.3343 
5 *410:22 *410:24 3.31429 
6 *410:24 *410:30 40.0643 
7 *410:30 *1719:B1 23 
8 *410:24 *410:39 27.5321 
9 *410:39 *410:43 6.71143 
10 *410:43 *410:49 31.8821 
11 *410:49 *410:53 6.40071 
12 *410:53 *410:57 28.8786 
13 *410:57 *1735:B1 32.6736 
14 *410:57 *410:72 37.7471 
15 *410:72 *1640:B1 23 
16 *410:53 *1632:B1 38 
17 *410:49 *410:88 25.15 
18 *410:88 *410:96 44.8936 
19 *410:96 *1648:B1 23 
20 *410:88 *1656:B1 23 
21 *410:43 *1743:B1 23 
22 *410:39 *410:117 30.8493 
23 *410:117 *1623:A 23 
24 *410:22 *1727:B1 41.3143 
25 *410:16 *1696:A 23 
26 *410:10 *1693:A 38.6214 
27 *410:8 *1694:A 45.4779 
*END

*D_NET *411 0.0251627
*CONN
*I *1664:A I *D sky130_fd_sc_hd__xor2_1
*I *1701:A I *D sky130_fd_sc_hd__xor2_1
*I *1702:A I *D sky130_fd_sc_hd__and3_1
*I *1703:A1 I *D sky130_fd_sc_hd__a21oi_1
*I *1850:A I *D sky130_fd_sc_hd__nand4_4
*I *1868:D I *D sky130_fd_sc_hd__nand4b_4
*I *1832:D I *D sky130_fd_sc_hd__nand4b_4
*I *1710:A I *D sky130_fd_sc_hd__nand4_4
*I *1785:A I *D sky130_fd_sc_hd__nand4_4
*I *1776:A_N I *D sky130_fd_sc_hd__and4bb_4
*I *1700:A I *D sky130_fd_sc_hd__nor2_1
*I *1706:A1 I *D sky130_fd_sc_hd__a31o_1
*I *1711:A1 I *D sky130_fd_sc_hd__a41o_1
*I *1767:D I *D sky130_fd_sc_hd__nand4b_4
*I *1885:A_N I *D sky130_fd_sc_hd__and4b_4
*I *1758:A_N I *D sky130_fd_sc_hd__and4b_4
*I *1794:A_N I *D sky130_fd_sc_hd__and4b_4
*I *1813:A_N I *D sky130_fd_sc_hd__and4bb_4
*I *1749:D I *D sky130_fd_sc_hd__nand4b_4
*I *1859:A_N I *D sky130_fd_sc_hd__and4bb_4
*I *1804:A I *D sky130_fd_sc_hd__nand4_4
*I *1823:A_N I *D sky130_fd_sc_hd__and4bb_4
*I *1841:A_N I *D sky130_fd_sc_hd__and4b_4
*I *1994:Q O *D sky130_fd_sc_hd__dfrtp_4
*CAP
1 *1664:A 0.000231085
2 *1701:A 0
3 *1702:A 2.34823e-05
4 *1703:A1 8.27752e-05
5 *1850:A 1.37415e-05
6 *1868:D 0
7 *1832:D 0
8 *1710:A 0.000135706
9 *1785:A 0.000609464
10 *1776:A_N 0
11 *1700:A 0
12 *1706:A1 0.00038985
13 *1711:A1 0.000170711
14 *1767:D 0
15 *1885:A_N 0
16 *1758:A_N 0
17 *1794:A_N 0
18 *1813:A_N 0
19 *1749:D 0
20 *1859:A_N 0
21 *1804:A 0.000249438
22 *1823:A_N 0
23 *1841:A_N 0.000627183
24 *1994:Q 0
25 *411:244 0.00011736
26 *411:207 0.000676117
27 *411:203 0.000320097
28 *411:196 0.000161504
29 *411:179 0.000906489
30 *411:175 0.000515493
31 *411:164 0.000568316
32 *411:153 0.000602259
33 *411:134 0.000305245
34 *411:126 0.000749484
35 *411:111 0.00087965
36 *411:94 0.000597357
37 *411:76 0.000375251
38 *411:74 0.000427163
39 *411:70 0.000434922
40 *411:64 0.000764088
41 *411:53 0.000346167
42 *411:45 0.000237448
43 *411:43 0.000346076
44 *411:33 0.000400961
45 *411:18 0.000908105
46 *411:16 0.000430219
47 *411:14 0.000974845
48 *411:4 0.000933495
49 *1703:A1 *1703:A2 6.17816e-05
50 *1703:A1 *412:18 3.7122e-06
51 *1706:A1 *1997:CLK 5.50049e-05
52 *1706:A1 *504:10 0.00010018
53 *1710:A *1998:RESET_B 0
54 *1710:A *2002:CLK 1.47563e-05
55 *1710:A *438:185 0
56 *1710:A *505:10 0.000163361
57 *1711:A1 *2000:RESET_B 0
58 *1711:A1 *413:72 0
59 *1711:A1 *438:185 0
60 *1785:A *1776:B_N 1.21972e-05
61 *1785:A *1785:B 0
62 *1785:A *412:121 1.59094e-05
63 *1785:A *447:16 2.71046e-05
64 *1804:A *451:111 6.78359e-05
65 *1841:A_N *412:62 0.000274898
66 *1850:A *1703:A2 5.83711e-06
67 *411:14 *1994:RESET_B 0
68 *411:14 *432:45 0
69 *411:14 *459:16 0
70 *411:14 *497:10 9.84851e-05
71 *411:16 *1702:B 3.52383e-05
72 *411:18 *1702:B 5.37348e-06
73 *411:33 *1702:B 0
74 *411:33 *1995:CLK 0
75 *411:43 *1703:A2 2.44913e-05
76 *411:43 *1850:B 0.00010018
77 *411:43 *412:39 9.58714e-05
78 *411:43 *450:61 0.000182832
79 *411:45 *1832:A_N 9.41704e-05
80 *411:45 *412:39 8.34394e-05
81 *411:53 *1859:B_N 5.3304e-05
82 *411:53 *416:180 0.000213551
83 *411:64 *1859:B_N 5.3304e-05
84 *411:64 *450:14 6.53382e-05
85 *411:70 *1885:C 6.33508e-05
86 *411:76 *451:111 7.66085e-05
87 *411:94 *451:111 6.95872e-05
88 *411:111 *416:96 0.000573388
89 *411:111 *451:111 1.02387e-05
90 *411:126 *1758:B 0.000139346
91 *411:126 *1758:C 2.4754e-05
92 *411:126 *416:96 7.06577e-05
93 *411:126 *447:10 1.60381e-05
94 *411:153 *1709:A 8.61037e-06
95 *411:153 *414:8 3.62568e-05
96 *411:153 *414:25 0
97 *411:153 *414:29 0
98 *411:175 *438:185 0
99 *411:179 *1997:D 1.39317e-05
100 *411:179 *1997:RESET_B 5.17905e-05
101 *411:196 *1997:CLK 0.000138718
102 *411:196 *1998:RESET_B 0
103 *411:196 *423:33 0.000209729
104 *411:196 *500:10 0.000145915
105 *411:203 *438:185 0
106 *411:207 *2002:D 2.93747e-05
107 *411:207 *447:16 0.000103637
108 *411:244 *1703:A2 3.53115e-05
109 *411:244 *1850:B 1.32314e-05
110 *1701:B *411:14 6.2339e-05
111 *1702:C *411:16 0.0005155
112 *1713:B *1706:A1 0.000187129
113 *1716:A0 *411:134 7.27371e-05
114 *1716:A1 *411:134 0.000218962
115 *1716:S0 *411:134 0
116 *1730:A1 *1841:A_N 7.44354e-05
117 *1748:A *1711:A1 1.09886e-05
118 *1776:D *1785:A 4.50413e-05
119 *1813:D *411:111 0.000276579
120 *1813:D *411:126 6.07611e-06
121 *1850:D *411:43 0.000167452
122 *1885:D *411:70 0.000390685
123 *165:29 *1706:A1 7.38999e-05
124 *165:29 *1711:A1 3.02296e-05
125 *165:29 *411:164 5.12328e-05
126 *165:29 *411:179 2.02872e-05
127 *165:42 *1706:A1 7.38255e-05
128 *225:8 *411:14 0.000217374
129 *225:10 *411:14 1.22822e-05
130 *225:10 *411:16 5.50106e-05
131 *230:51 *411:126 9.8971e-06
132 *232:10 *1710:A 0
133 *232:10 *1711:A1 0
134 *232:10 *411:153 0
135 *232:10 *411:175 0
136 *232:10 *411:203 0
137 *239:10 *411:53 0.000218013
138 *246:8 *1841:A_N 1.76557e-05
139 *246:10 *411:64 0.000134687
140 *246:10 *411:153 0.000181034
141 *261:14 *411:111 0.000193396
142 *263:6 *411:126 1.94812e-05
143 *263:95 *411:134 2.77188e-05
144 *265:14 *1785:A 5.3304e-05
145 *265:101 *1785:A 0.000140259
146 *267:10 *411:134 8.9046e-05
147 *272:14 *411:33 7.75329e-06
148 *273:8 *1804:A 0.000221184
149 *275:6 *411:43 2.02872e-05
150 *275:6 *411:244 4.79641e-05
151 *275:16 *411:33 0.000167443
152 *275:107 *411:33 1.14154e-05
153 *275:107 *411:43 0.000312348
154 *277:86 *411:43 1.34354e-05
155 *278:10 *411:70 2.32101e-05
156 *278:10 *411:74 0.000137651
157 *287:27 *411:111 6.25829e-05
158 *295:8 *411:134 5.50106e-05
159 *407:265 *1804:A 0
160 *407:265 *411:76 0
161 *407:265 *411:94 0
162 *407:265 *411:111 0
163 *407:265 *411:134 0
164 *408:90 *411:126 1.62648e-05
165 *409:73 *411:70 0.000269781
166 *409:73 *411:74 0.000159907
167 *409:90 *411:43 0.000216721
168 *409:90 *411:64 0.00026917
169 *409:90 *411:153 0.000111852
170 *409:94 *1841:A_N 0.000141954
*RES
1 *1994:Q *411:4 23 
2 *411:4 *411:14 44.3136 
3 *411:14 *411:16 7.29143 
4 *411:16 *411:18 2.52714 
5 *411:18 *1841:A_N 34.5793 
6 *411:18 *411:33 33.1071 
7 *411:33 *411:43 38.0164 
8 *411:43 *411:45 2.05071 
9 *411:45 *411:53 33.5836 
10 *411:53 *1823:A_N 23 
11 *411:53 *411:64 20.7171 
12 *411:64 *411:70 22.3121 
13 *411:70 *411:74 18.48 
14 *411:74 *411:76 2.96214 
15 *411:76 *1804:A 43.7793 
16 *411:76 *1859:A_N 38 
17 *411:74 *411:94 2.96214 
18 *411:94 *1749:D 38 
19 *411:94 *411:111 12.5943 
20 *411:111 *1813:A_N 38 
21 *411:111 *411:126 21.6079 
22 *411:126 *411:134 37.105 
23 *411:134 *1794:A_N 23 
24 *411:126 *1758:A_N 23 
25 *411:70 *1885:A_N 23 
26 *411:64 *411:153 20.075 
27 *411:153 *1767:D 23 
28 *411:153 *411:164 21.3593 
29 *411:164 *1711:A1 40.9621 
30 *411:164 *411:175 0.849286 
31 *411:175 *411:179 19.9093 
32 *411:179 *1706:A1 31.7621 
33 *411:179 *411:196 34.7229 
34 *411:196 *1700:A 23 
35 *411:175 *411:203 1.90571 
36 *411:203 *411:207 17.0507 
37 *411:207 *1776:A_N 23 
38 *411:207 *1785:A 31.8657 
39 *411:203 *1710:A 40.9621 
40 *411:45 *1832:D 23 
41 *411:43 *1868:D 23 
42 *411:33 *411:244 1.09786 
43 *411:244 *1850:A 23.4971 
44 *411:244 *1703:A1 25.0714 
45 *411:16 *1702:A 23.4971 
46 *411:14 *1701:A 23 
47 *411:4 *1664:A 26.9564 
*END

*D_NET *412 0.0294288
*CONN
*I *1665:A I *D sky130_fd_sc_hd__nor2_1
*I *1666:A I *D sky130_fd_sc_hd__and2_1
*I *1706:A2 I *D sky130_fd_sc_hd__a31o_1
*I *1703:B1 I *D sky130_fd_sc_hd__a21oi_1
*I *1868:A_N I *D sky130_fd_sc_hd__nand4b_4
*I *1711:A2 I *D sky130_fd_sc_hd__a41o_1
*I *1823:B_N I *D sky130_fd_sc_hd__and4bb_4
*I *1850:B I *D sky130_fd_sc_hd__nand4_4
*I *1776:B_N I *D sky130_fd_sc_hd__and4bb_4
*I *1758:B I *D sky130_fd_sc_hd__and4b_4
*I *1813:B_N I *D sky130_fd_sc_hd__and4bb_4
*I *1705:A I *D sky130_fd_sc_hd__xnor2_1
*I *1710:B I *D sky130_fd_sc_hd__nand4_4
*I *1785:B I *D sky130_fd_sc_hd__nand4_4
*I *1794:B I *D sky130_fd_sc_hd__and4b_4
*I *1767:A_N I *D sky130_fd_sc_hd__nand4b_4
*I *1749:A_N I *D sky130_fd_sc_hd__nand4b_4
*I *1885:B I *D sky130_fd_sc_hd__and4b_4
*I *1859:B_N I *D sky130_fd_sc_hd__and4bb_4
*I *1804:B I *D sky130_fd_sc_hd__nand4_4
*I *1841:B I *D sky130_fd_sc_hd__and4b_4
*I *1832:A_N I *D sky130_fd_sc_hd__nand4b_4
*I *1702:B I *D sky130_fd_sc_hd__and3_1
*I *1995:Q O *D sky130_fd_sc_hd__dfrtp_4
*CAP
1 *1665:A 8.47425e-05
2 *1666:A 0
3 *1706:A2 0
4 *1703:B1 1.74351e-05
5 *1868:A_N 0
6 *1711:A2 0.000518607
7 *1823:B_N 0
8 *1850:B 0.000169059
9 *1776:B_N 5.04253e-05
10 *1758:B 0.000386921
11 *1813:B_N 0
12 *1705:A 0.000192814
13 *1710:B 2.34823e-05
14 *1785:B 1.17411e-05
15 *1794:B 0.000207083
16 *1767:A_N 0
17 *1749:A_N 2.39054e-05
18 *1885:B 6.6949e-05
19 *1859:B_N 0.000142463
20 *1804:B 0.000310443
21 *1841:B 0
22 *1832:A_N 0.00046066
23 *1702:B 0.000251368
24 *1995:Q 0
25 *412:271 0.00110104
26 *412:256 0.000530769
27 *412:222 0.000698602
28 *412:205 0.000349054
29 *412:182 0.000465108
30 *412:162 0.000594353
31 *412:158 0.000556603
32 *412:133 0.000153274
33 *412:125 0.000417334
34 *412:123 9.07368e-05
35 *412:121 0.000276402
36 *412:119 0.000359553
37 *412:106 0.000319204
38 *412:91 0.000284571
39 *412:80 0.000310766
40 *412:62 0.00071127
41 *412:54 0.00108954
42 *412:52 0.0001587
43 *412:39 0.000723571
44 *412:37 0.000413475
45 *412:33 0.000204893
46 *412:18 0.000404058
47 *412:14 0.000884201
48 *412:10 0.00140745
49 *412:4 0.00112458
50 *1702:B *1995:CLK 0.000139647
51 *1703:B1 *1703:A2 1.38422e-05
52 *1705:A *1700:B 0.000265862
53 *1705:A *423:29 0.0002263
54 *1710:B *1710:C 0
55 *1711:A2 *1711:B1 1.76557e-05
56 *1711:A2 *413:36 0
57 *1711:A2 *413:80 2.65879e-05
58 *1711:A2 *414:25 1.46331e-05
59 *1711:A2 *414:29 0.000105165
60 *1711:A2 *450:226 0
61 *1758:B *1758:C 0.000351513
62 *1776:B_N *447:16 4.05745e-05
63 *1794:B *1794:C 0.000389772
64 *1794:B *447:16 4.83479e-05
65 *1794:B *450:161 8.34394e-05
66 *1804:B *1804:C 1.14154e-05
67 *1804:B *450:39 2.93845e-05
68 *1804:B *450:50 0.000229856
69 *1832:A_N *1832:B 4.41403e-05
70 *1850:B *1703:A2 5.41288e-05
71 *1850:B *413:23 2.76611e-06
72 *1859:B_N *450:14 0.000308039
73 *412:10 *1995:RESET_B 7.0019e-05
74 *412:10 *459:16 0
75 *412:14 *1995:CLK 1.5769e-05
76 *412:14 *1995:RESET_B 0.000178813
77 *412:18 *1995:CLK 1.59094e-05
78 *412:37 *413:23 9.84794e-05
79 *412:54 *416:180 0.000181943
80 *412:62 *416:180 0.00021356
81 *412:80 *416:180 0.000203407
82 *412:91 *416:180 0.000178782
83 *412:106 *416:180 0.000231212
84 *412:119 *416:180 0.000136486
85 *412:121 *447:16 0.00010299
86 *412:123 *447:16 2.4754e-05
87 *412:123 *450:161 5.37348e-06
88 *412:125 *447:16 7.43624e-05
89 *412:125 *450:161 4.38771e-05
90 *412:133 *1767:B 9.84851e-05
91 *412:133 *416:180 4.5051e-05
92 *412:133 *450:131 1.12487e-05
93 *412:158 *450:161 0.000111852
94 *412:158 *452:32 0.000247687
95 *412:162 *1700:B 2.93845e-05
96 *412:162 *450:161 0.000225389
97 *412:162 *450:170 7.44257e-05
98 *412:182 *452:32 0.000194327
99 *412:222 *413:23 7.66188e-05
100 *412:222 *413:36 5.11935e-06
101 *412:256 *1706:B1 0.000136039
102 *412:256 *1995:RESET_B 6.6869e-05
103 *412:256 *413:64 0.000196168
104 *412:256 *450:240 0.000218962
105 *412:256 *459:16 0
106 *412:271 *1921:RESET_B 5.03619e-05
107 *412:271 *1995:RESET_B 7.53384e-06
108 *412:271 *438:41 0.000191148
109 *1665:B *1665:A 4.94223e-05
110 *1665:B *412:271 5.52357e-05
111 *1673:B *412:271 5.94125e-05
112 *1703:A1 *412:18 3.7122e-06
113 *1748:A *1711:A2 2.02872e-05
114 *1776:D *1776:B_N 5.3304e-05
115 *1785:A *1776:B_N 1.21972e-05
116 *1785:A *1785:B 0
117 *1785:A *412:121 1.59094e-05
118 *1786:S *412:133 0.000330514
119 *1794:D *1794:B 0.000261951
120 *1813:D *1758:B 2.02872e-05
121 *1841:A_N *412:62 0.000274898
122 *1841:D *412:62 6.70361e-05
123 *1885:D *1885:B 0.000180218
124 *165:21 *1711:A2 8.3742e-05
125 *165:29 *1711:A2 1.6873e-05
126 *202:10 *1665:A 5.50106e-05
127 *202:10 *412:271 5.3304e-05
128 *209:10 *412:271 0.000129504
129 *225:23 *412:10 0
130 *225:23 *412:256 0
131 *228:8 *1702:B 4.07715e-05
132 *228:8 *412:33 6.79006e-05
133 *230:14 *412:119 3.81486e-05
134 *230:25 *412:119 0.000206577
135 *230:51 *1758:B 5.00888e-05
136 *231:12 *1705:A 3.22879e-05
137 *231:151 *1705:A 1.56665e-05
138 *232:10 *1711:A2 0.000115151
139 *233:10 *412:182 0.000138727
140 *239:10 *412:119 0.000398655
141 *246:8 *412:62 5.3304e-05
142 *246:10 *412:54 0.000192087
143 *246:10 *412:62 0.000188926
144 *246:10 *412:80 0.000213551
145 *246:10 *412:91 0.000188926
146 *246:10 *412:106 0.000241355
147 *261:8 *1749:A_N 5.3304e-05
148 *261:8 *412:106 9.41704e-05
149 *265:14 *412:133 1.40958e-05
150 *266:19 *412:133 1.14452e-05
151 *268:10 *1885:B 9.4713e-05
152 *268:27 *1832:A_N 9.5877e-05
153 *268:38 *1832:A_N 5.50049e-05
154 *270:10 *1758:B 5.3304e-05
155 *271:17 *1711:A2 0
156 *271:17 *412:222 0
157 *271:19 *412:222 0
158 *272:8 *412:222 5.61414e-05
159 *272:14 *1702:B 0
160 *272:14 *1850:B 7.30875e-05
161 *272:14 *412:222 6.7177e-06
162 *272:64 *1832:A_N 0.000708006
163 *272:64 *412:39 0.00039069
164 *278:88 *1804:B 9.67842e-05
165 *407:248 *412:182 0
166 *408:111 *412:133 0.000216721
167 *408:111 *412:158 4.51974e-05
168 *409:90 *1749:A_N 1.94812e-05
169 *409:90 *412:62 6.7177e-06
170 *409:90 *412:106 2.62931e-05
171 *411:16 *1702:B 3.52383e-05
172 *411:18 *1702:B 5.37348e-06
173 *411:33 *1702:B 0
174 *411:43 *1850:B 0.00010018
175 *411:43 *412:39 9.58714e-05
176 *411:45 *1832:A_N 9.41704e-05
177 *411:45 *412:39 8.34394e-05
178 *411:53 *1859:B_N 5.3304e-05
179 *411:64 *1859:B_N 5.3304e-05
180 *411:126 *1758:B 0.000139346
181 *411:244 *1850:B 1.32314e-05
*RES
1 *1995:Q *412:4 23 
2 *412:4 *412:10 17.2993 
3 *412:10 *412:14 25.15 
4 *412:14 *412:18 16.0979 
5 *412:18 *1702:B 42.06 
6 *412:18 *412:33 16.9057 
7 *412:33 *412:37 3.02429 
8 *412:37 *412:39 5.86214 
9 *412:39 *1832:A_N 33.3157 
10 *412:39 *412:52 15 
11 *412:52 *412:54 2.61 
12 *412:54 *412:62 28.0086 
13 *412:62 *1841:B 23 
14 *412:54 *1804:B 43.8829 
15 *412:52 *412:80 2.96214 
16 *412:80 *1859:B_N 41.48 
17 *412:80 *412:91 2.61 
18 *412:91 *1885:B 40.0507 
19 *412:91 *412:106 19.4121 
20 *412:106 *1749:A_N 23.6214 
21 *412:106 *412:119 35.4271 
22 *412:119 *412:121 2.52714 
23 *412:121 *412:123 0.621429 
24 *412:123 *412:125 1.57429 
25 *412:125 *412:133 35.0129 
26 *412:133 *1767:A_N 23 
27 *412:125 *1794:B 29.235 
28 *412:123 *1785:B 23.4971 
29 *412:121 *412:158 18.3143 
30 *412:158 *412:162 21.815 
31 *412:162 *1710:B 23.4971 
32 *412:162 *1705:A 28.8829 
33 *412:158 *412:182 17.61 
34 *412:182 *1813:B_N 23 
35 *412:182 *1758:B 30.6643 
36 *412:119 *1776:B_N 24.0979 
37 *412:37 *412:205 15 
38 *412:205 *1850:B 42.06 
39 *412:205 *412:222 4.55714 
40 *412:222 *1823:B_N 38 
41 *412:222 *1711:A2 47.135 
42 *412:33 *1868:A_N 23 
43 *412:14 *1703:B1 23.4971 
44 *412:10 *412:256 28.1743 
45 *412:256 *1706:A2 23 
46 *412:4 *412:271 49.575 
47 *412:271 *1666:A 23 
48 *412:271 *1665:A 25.0714 
*END

*D_NET *413 0.0118039
*CONN
*I *1671:A I *D sky130_fd_sc_hd__or2_1
*I *1668:A I *D sky130_fd_sc_hd__nand2_1
*I *1706:B1 I *D sky130_fd_sc_hd__a31o_1
*I *1711:A3 I *D sky130_fd_sc_hd__a41o_1
*I *1748:B I *D sky130_fd_sc_hd__nor2_2
*I *1709:B I *D sky130_fd_sc_hd__and2_2
*I *1822:B I *D sky130_fd_sc_hd__nor2_2
*I *1803:B I *D sky130_fd_sc_hd__and2_2
*I *1708:A I *D sky130_fd_sc_hd__xnor2_1
*I *1707:A I *D sky130_fd_sc_hd__xor2_1
*I *1996:Q O *D sky130_fd_sc_hd__dfrtp_4
*CAP
1 *1671:A 7.61889e-05
2 *1668:A 0
3 *1706:B1 0.000105069
4 *1711:A3 0
5 *1748:B 2.49285e-05
6 *1709:B 0.000127844
7 *1822:B 1.26784e-05
8 *1803:B 0.000167639
9 *1708:A 0
10 *1707:A 0
11 *1996:Q 0
12 *413:116 0.000521316
13 *413:80 0.000514381
14 *413:76 0.000594715
15 *413:72 0.000883187
16 *413:64 0.00111967
17 *413:58 0.00100123
18 *413:36 0.000497513
19 *413:23 0.00060023
20 *413:10 0.00138633
21 *413:4 0.00129489
22 *1706:B1 *459:16 9.35856e-05
23 *1709:B *1709:A 3.22879e-05
24 *413:10 *1996:D 0.000271476
25 *413:10 *1996:RESET_B 3.39434e-05
26 *413:10 *432:113 3.87007e-05
27 *413:23 *1996:D 0
28 *413:23 *432:113 1.32314e-05
29 *413:36 *1624:A 0.000141052
30 *413:36 *450:226 5.31444e-05
31 *413:58 *459:16 0
32 *413:58 *460:14 0
33 *413:64 *459:16 0.000128524
34 *413:72 *2000:RESET_B 0
35 *413:72 *432:113 0
36 *413:72 *450:240 0.000351187
37 *413:76 *2000:D 2.81406e-06
38 *413:76 *2000:RESET_B 0.000141954
39 *413:76 *450:240 3.90291e-05
40 *413:80 *1711:B1 0.000267178
41 *413:80 *2000:D 1.24376e-05
42 *413:80 *450:240 3.66365e-05
43 *1668:B *1671:A 5.67058e-05
44 *1704:B *413:23 0
45 *1704:B *413:36 0
46 *1711:A1 *413:72 0
47 *1711:A2 *413:36 0
48 *1711:A2 *413:80 2.65879e-05
49 *1803:A *1803:B 0.000120631
50 *1803:A *1822:B 1.14154e-05
51 *1803:A *413:36 4.95081e-05
52 *1850:B *413:23 2.76611e-06
53 *1885:D *1803:B 4.34876e-05
54 *199:18 *1671:A 0.00010018
55 *205:6 *1671:A 0.000187129
56 *228:8 *413:23 0
57 *261:8 *1709:B 4.94192e-05
58 *261:8 *413:80 5.37348e-06
59 *409:90 *1709:B 5.3304e-05
60 *412:37 *413:23 9.84794e-05
61 *412:222 *413:23 7.66188e-05
62 *412:222 *413:36 5.11935e-06
63 *412:256 *1706:B1 0.000136039
64 *412:256 *413:64 0.000196168
*RES
1 *1996:Q *413:4 23 
2 *413:4 *413:10 15.3079 
3 *413:10 *1707:A 23 
4 *413:10 *413:23 20.9864 
5 *413:23 *1708:A 38 
6 *413:23 *413:36 21.2143 
7 *413:36 *1803:B 26.0243 
8 *413:36 *1822:B 23.4971 
9 *413:4 *413:58 33.3143 
10 *413:58 *413:64 23.555 
11 *413:64 *413:72 40.15 
12 *413:72 *413:76 18.48 
13 *413:76 *413:80 6.93929 
14 *413:80 *1709:B 25.9 
15 *413:80 *1748:B 23.8493 
16 *413:76 *1711:A3 23 
17 *413:64 *1706:B1 41.6664 
18 *413:58 *413:116 7.93357 
19 *413:116 *1668:A 23 
20 *413:116 *1671:A 26.0243 
*END

*D_NET *414 0.00193469
*CONN
*I *1711:B1 I *D sky130_fd_sc_hd__a41o_1
*I *1624:A I *D sky130_fd_sc_hd__inv_2
*I *1822:A I *D sky130_fd_sc_hd__nor2_2
*I *1709:A I *D sky130_fd_sc_hd__and2_2
*I *1997:Q O *D sky130_fd_sc_hd__dfrtp_1
*CAP
1 *1711:B1 7.2918e-05
2 *1624:A 3.38477e-05
3 *1822:A 0
4 *1709:A 1.99022e-05
5 *1997:Q 6.36475e-05
6 *414:29 0.000182611
7 *414:25 0.000316586
8 *414:8 0.000178454
9 *1709:B *1709:A 3.22879e-05
10 *1711:A2 *1711:B1 1.76557e-05
11 *1711:A2 *414:25 1.46331e-05
12 *1711:A2 *414:29 0.000105165
13 *1748:A *1711:B1 0.000139357
14 *1803:A *1624:A 0.000139357
15 *232:10 *1711:B1 4.5051e-05
16 *232:10 *414:8 5.56306e-05
17 *261:8 *1709:A 5.50049e-05
18 *271:17 *414:29 9.48381e-06
19 *409:90 *414:29 0
20 *411:153 *1709:A 8.61037e-06
21 *411:153 *414:8 3.62568e-05
22 *411:153 *414:25 0
23 *411:153 *414:29 0
24 *413:36 *1624:A 0.000141052
25 *413:80 *1711:B1 0.000267178
*RES
1 *1997:Q *414:8 39.7296 
2 *414:8 *1709:A 38.9425 
3 *414:8 *414:25 1.91607 
4 *414:25 *414:29 17.9621 
5 *414:29 *1822:A 23 
6 *414:29 *1624:A 24.5743 
7 *414:25 *1711:B1 41.0036 
*END

*D_NET *415 0.0027129
*CONN
*I *2071:A I *D sky130_fd_sc_hd__clkbuf_16
*I *2070:A I *D sky130_fd_sc_hd__clkbuf_16
*I *2068:X O *D sky130_fd_sc_hd__clkbuf_16
*CAP
1 *2071:A 0
2 *2070:A 0
3 *2068:X 0
4 *415:27 0.000438379
5 *415:12 0.000357199
6 *415:4 0.000795578
7 *415:27 *2027:CLK 5.38249e-05
8 *415:27 *2027:RESET_B 0.000487153
9 *415:27 *488:10 2.96369e-05
10 *415:27 *494:10 0
11 *1685:C *415:12 0.000225256
12 *1685:C *415:27 3.51105e-05
13 *1687:B *415:12 5.68527e-05
14 *218:23 *415:27 0.000161121
15 *219:21 *415:12 4.90994e-05
16 *220:8 *415:12 2.36844e-05
17 *409:16 *415:12 0
*RES
1 *2068:X *415:4 23 
2 *415:4 *415:12 37.4571 
3 *415:12 *2070:A 23 
4 *415:4 *415:27 40.8543 
5 *415:27 *2071:A 23 
*END

*D_NET *416 0.0575366
*CONN
*I *2085:A I *D sky130_fd_sc_hd__clkbuf_8
*I *2084:A I *D sky130_fd_sc_hd__clkbuf_8
*I *2083:A I *D sky130_fd_sc_hd__clkbuf_8
*I *2082:A I *D sky130_fd_sc_hd__clkbuf_8
*I *2078:A I *D sky130_fd_sc_hd__clkbuf_8
*I *2077:A I *D sky130_fd_sc_hd__clkbuf_8
*I *2073:A I *D sky130_fd_sc_hd__clkbuf_8
*I *2074:A I *D sky130_fd_sc_hd__clkbuf_8
*I *2076:A I *D sky130_fd_sc_hd__clkbuf_8
*I *2075:A I *D sky130_fd_sc_hd__clkbuf_8
*I *2087:A I *D sky130_fd_sc_hd__clkbuf_8
*I *2086:A I *D sky130_fd_sc_hd__clkbuf_8
*I *2081:A I *D sky130_fd_sc_hd__clkbuf_8
*I *2079:A I *D sky130_fd_sc_hd__clkbuf_8
*I *2072:A I *D sky130_fd_sc_hd__clkbuf_8
*I *2080:A I *D sky130_fd_sc_hd__clkbuf_8
*I *2069:X O *D sky130_fd_sc_hd__clkbuf_16
*CAP
1 *2085:A 0.000689518
2 *2084:A 0
3 *2083:A 0
4 *2082:A 0
5 *2078:A 0
6 *2077:A 0
7 *2073:A 0.00151306
8 *2074:A 0
9 *2076:A 0
10 *2075:A 0
11 *2087:A 7.50332e-05
12 *2086:A 0
13 *2081:A 0
14 *2079:A 0.000548058
15 *2072:A 0.000248362
16 *2080:A 0
17 *2069:X 0
18 *416:194 0.00079937
19 *416:184 0.00134642
20 *416:182 0.000573617
21 *416:180 0.00201104
22 *416:169 0.000538747
23 *416:138 0.00151306
24 *416:136 0.0024429
25 *416:124 0.00273887
26 *416:120 0.00152215
27 *416:113 0.000739382
28 *416:105 0.0015473
29 *416:96 0.000774548
30 *416:92 0.00234305
31 *416:72 0.00111463
32 *416:66 0.0015744
33 *416:45 0.000796421
34 *416:43 0.00118353
35 *416:39 0.00141059
36 *416:28 0.000914048
37 *416:22 0.00169285
38 *416:20 0.00116165
39 *416:14 0.00201752
40 *416:4 0.00218638
41 *2079:A *426:6 0.000170365
42 *2079:A *426:14 7.73389e-05
43 *2079:A *426:28 6.08617e-05
44 *2079:A *426:79 0.000114856
45 *2085:A *431:6 0.000349818
46 *2085:A *431:70 0.00048285
47 *416:14 *436:75 2.5415e-05
48 *416:28 *2067:CLK 4.34745e-05
49 *416:28 *427:6 5.50106e-05
50 *416:39 *1876:A0 4.34745e-05
51 *416:39 *436:79 9.5877e-05
52 *416:43 *426:14 6.88552e-05
53 *416:43 *455:73 3.28876e-05
54 *416:66 *453:109 0
55 *416:72 *453:131 0.000308258
56 *416:92 *451:119 1.03836e-05
57 *416:92 *451:127 0.0002263
58 *416:96 *1795:A1 6.12496e-06
59 *416:96 *447:10 0.000420128
60 *416:96 *451:141 0
61 *416:96 *451:143 0
62 *416:105 *451:143 0
63 *416:105 *451:158 0
64 *416:113 *422:12 0.000349813
65 *416:120 *1759:A1 0
66 *416:120 *452:150 0.000117563
67 *416:136 *454:147 2.19246e-05
68 *416:169 *425:12 5.87296e-05
69 *416:169 *452:150 0.000134896
70 *416:180 *1767:B 0.000180849
71 *416:182 *431:61 2.55642e-05
72 *416:184 *431:61 0.000218962
73 *416:194 *429:10 0.000205566
74 *416:194 *451:86 2.29895e-05
75 *1645:A3 *2073:A 5.77253e-05
76 *1649:A1 *416:22 0.000121262
77 *1721:A0 *416:194 0.000138593
78 *1731:B2 *416:169 0.000478647
79 *1734:A1 *416:66 1.7992e-05
80 *1734:A1 *416:72 4.38638e-05
81 *1734:A3 *416:66 8.57661e-05
82 *1734:A3 *416:72 8.97286e-06
83 *1767:C *416:180 2.64616e-05
84 *1769:A1 *416:124 8.264e-05
85 *1770:A1 *416:66 1.69668e-05
86 *1779:A0 *2087:A 0
87 *1779:A0 *416:66 0
88 *1786:A1 *416:92 0.000123239
89 *1786:A1 *416:96 6.85339e-05
90 *1786:S *416:92 3.17516e-05
91 *1786:S *416:180 5.42593e-05
92 *1825:A0 *2085:A 4.79641e-05
93 *1830:A0 *416:22 2.01312e-05
94 *1875:A1 *416:22 5.56203e-05
95 *1946:D *416:113 0.000268817
96 *2057:D *416:14 1.64354e-05
97 *2058:D *2073:A 0.00032013
98 *2067:D *416:28 0.000228597
99 *16:33 *416:14 0.00196125
100 *43:8 *416:120 0
101 *53:8 *416:66 0.000323803
102 *61:8 *2087:A 5.21127e-05
103 *61:8 *416:66 5.65491e-05
104 *65:10 *416:136 6.61923e-05
105 *87:8 *416:43 8.51432e-05
106 *146:8 *416:43 0.000166522
107 *148:8 *416:120 0.00019747
108 *148:8 *416:169 7.46643e-05
109 *156:10 *416:184 0.000111852
110 *163:22 *416:136 1.37246e-05
111 *164:18 *416:136 0.00017462
112 *184:10 *2073:A 8.2832e-05
113 *190:18 *416:136 0.00010016
114 *230:14 *416:180 8.62783e-05
115 *239:10 *416:180 0.0004705
116 *239:10 *416:182 1.37349e-05
117 *239:10 *416:184 0.000458505
118 *239:10 *416:194 8.51329e-05
119 *244:8 *416:180 0
120 *244:8 *416:184 0
121 *245:10 *416:180 4.08641e-05
122 *245:10 *416:182 2.96051e-05
123 *245:10 *416:184 8.16356e-05
124 *246:10 *416:180 1.89075e-05
125 *253:10 *416:43 0
126 *263:110 *416:136 4.73689e-05
127 *264:16 *416:113 0.000424221
128 *265:14 *416:180 2.66184e-05
129 *266:65 *2073:A 0.000318784
130 *270:89 *416:120 0
131 *270:89 *416:169 0.000176465
132 *272:109 *416:43 0
133 *275:131 *416:22 4.11344e-05
134 *275:131 *416:28 0.000140661
135 *277:38 *416:39 0.000139346
136 *277:42 *416:28 0.000222113
137 *277:42 *416:43 0
138 *287:27 *416:96 6.25829e-05
139 *303:10 *416:113 3.71251e-05
140 *304:20 *416:169 0.000239216
141 *305:8 *416:66 0
142 *312:6 *416:124 0.000361027
143 *317:14 *416:136 1.14452e-05
144 *325:27 *2073:A 1.06533e-05
145 *327:12 *416:120 2.5415e-05
146 *342:12 *416:28 2.81066e-05
147 *342:25 *416:28 2.98648e-05
148 *350:14 *416:28 2.64616e-05
149 *350:29 *416:28 9.4713e-05
150 *350:29 *416:43 0.000139647
151 *357:8 *416:22 0.000404038
152 *375:23 *416:194 7.42701e-05
153 *379:8 *416:43 0.000211681
154 *407:61 *2073:A 3.54257e-05
155 *407:265 *416:96 0
156 *407:295 *416:43 0
157 *407:311 *416:43 0
158 *407:373 *416:22 0.00060311
159 *407:373 *416:28 3.42537e-05
160 *407:373 *416:43 0
161 *407:386 *416:22 0.000685718
162 *407:386 *416:66 0.000733797
163 *407:449 *416:194 0.000698582
164 *408:80 *416:120 0.000138178
165 *408:90 *416:96 3.58262e-05
166 *408:90 *416:105 5.25997e-05
167 *408:90 *416:120 7.73301e-05
168 *408:142 *416:184 0.000819433
169 *408:142 *416:194 0.000237534
170 *408:146 *416:194 6.48142e-05
171 *408:249 *416:43 0.000452948
172 *408:257 *416:43 2.33476e-05
173 *408:421 *2087:A 1.19796e-05
174 *409:90 *416:180 0
175 *409:98 *416:180 0
176 *409:98 *416:184 0
177 *410:39 *416:169 0.000478647
178 *411:53 *416:180 0.000213551
179 *411:111 *416:96 0.000573388
180 *411:126 *416:96 7.06577e-05
181 *412:54 *416:180 0.000181943
182 *412:62 *416:180 0.00021356
183 *412:80 *416:180 0.000203407
184 *412:91 *416:180 0.000178782
185 *412:106 *416:180 0.000231212
186 *412:119 *416:180 0.000136486
187 *412:133 *416:180 4.5051e-05
*RES
1 *2069:X *416:4 23 
2 *416:4 *416:14 47.48 
3 *416:14 *416:20 32.5271 
4 *416:20 *416:22 17.4 
5 *416:22 *416:28 33.1043 
6 *416:28 *2080:A 23 
7 *416:22 *416:39 19.4536 
8 *416:39 *416:43 41.2036 
9 *416:43 *416:45 15 
10 *416:45 *2072:A 26.9564 
11 *416:45 *2079:A 33.15 
12 *416:39 *2081:A 23 
13 *416:20 *416:66 11.4136 
14 *416:66 *416:72 29.4586 
15 *416:72 *2086:A 23 
16 *416:66 *2087:A 39.5536 
17 *416:4 *416:92 7.45714 
18 *416:92 *416:96 30.2871 
19 *416:96 *2075:A 38 
20 *416:96 *416:105 2.25786 
21 *416:105 *416:113 30.08 
22 *416:113 *2076:A 23 
23 *416:105 *416:120 15.2871 
24 *416:120 *416:124 21.815 
25 *416:124 *416:136 41.4367 
26 *416:136 *416:138 15 
27 *416:138 *2074:A 23 
28 *416:138 *2073:A 44.5014 
29 *416:124 *2077:A 23 
30 *416:120 *416:169 29.1686 
31 *416:169 *2078:A 23 
32 *416:92 *416:180 41.825 
33 *416:180 *416:182 0.849286 
34 *416:182 *416:184 17.0479 
35 *416:184 *416:194 33.4979 
36 *416:194 *2082:A 23 
37 *416:184 *2083:A 38 
38 *416:182 *2084:A 38 
39 *416:180 *2085:A 48.6471 
*END

*D_NET *417 0.0211415
*CONN
*I *1913:CLK I *D sky130_fd_sc_hd__dfxtp_1
*I *2029:CLK I *D sky130_fd_sc_hd__dfrtp_4
*I *2034:CLK I *D sky130_fd_sc_hd__dfrtp_1
*I *2033:CLK I *D sky130_fd_sc_hd__dfrtp_1
*I *2028:CLK I *D sky130_fd_sc_hd__dfrtp_4
*I *2095:A I *D sky130_fd_sc_hd__inv_4
*I *1914:CLK I *D sky130_fd_sc_hd__dfxtp_1
*I *1918:CLK I *D sky130_fd_sc_hd__dfxtp_1
*I *1915:CLK I *D sky130_fd_sc_hd__dfxtp_1
*I *1919:CLK I *D sky130_fd_sc_hd__dfxtp_1
*I *1916:CLK I *D sky130_fd_sc_hd__dfxtp_1
*I *1917:CLK I *D sky130_fd_sc_hd__dfxtp_1
*I *2070:X O *D sky130_fd_sc_hd__clkbuf_16
*CAP
1 *1913:CLK 0.000340577
2 *2029:CLK 4.76273e-05
3 *2034:CLK 0
4 *2033:CLK 0.000488598
5 *2028:CLK 0
6 *2095:A 2.34823e-05
7 *1914:CLK 0.000303421
8 *1918:CLK 0.000634007
9 *1915:CLK 4.24511e-05
10 *1919:CLK 3.92716e-05
11 *1916:CLK 9.57817e-05
12 *1917:CLK 0
13 *2070:X 3.92302e-05
14 *417:108 0.00081885
15 *417:102 0.000659911
16 *417:91 0.000930648
17 *417:87 0.00108394
18 *417:49 0.000676459
19 *417:47 0.000422443
20 *417:36 0.000279864
21 *417:23 0.000474039
22 *417:16 0.00128986
23 *417:12 0.0022642
24 *417:8 0.000850763
25 *417:6 0.000243608
26 *1913:CLK *452:14 0
27 *1918:CLK *425:107 9.84851e-05
28 *1918:CLK *444:10 0.000234898
29 *2033:CLK *494:10 0
30 *417:16 *422:26 5.43545e-05
31 *417:16 *424:14 0.000278634
32 *417:16 *424:50 0.000186451
33 *417:16 *424:65 0.000662489
34 *417:108 *494:10 9.86125e-06
35 *417:108 *495:8 0
36 *1689:B *417:91 5.41385e-05
37 *1689:B *417:102 6.7063e-05
38 *1691:B *417:108 0
39 *1726:A1 *1913:CLK 0
40 *1727:A2 *1913:CLK 1.22906e-05
41 *1727:A2 *417:87 1.22803e-05
42 *1727:A2 *417:91 4.67488e-05
43 *1727:B1 *417:87 0.000163361
44 *1747:A2 *417:12 5.3304e-05
45 *1747:B1 *417:12 0.000108826
46 *1747:B2 *417:12 9.84794e-05
47 *5:9 *2033:CLK 0
48 *29:18 *1914:CLK 7.48422e-05
49 *29:18 *417:47 1.7992e-05
50 *30:8 *417:12 1.21972e-05
51 *30:18 *1918:CLK 3.69133e-05
52 *30:18 *417:16 9.26005e-05
53 *30:18 *417:23 0.000551882
54 *30:18 *417:36 0.000243587
55 *30:18 *417:47 0.000166522
56 *31:14 *1916:CLK 0.000126403
57 *33:18 *417:12 0.00133841
58 *34:14 *1919:CLK 9.5877e-05
59 *34:14 *417:23 0.000260837
60 *34:14 *417:36 0.000115289
61 *34:14 *417:47 1.12487e-05
62 *63:8 *417:16 0.000110922
63 *92:10 *1913:CLK 0.000108681
64 *164:71 *417:16 0
65 *221:8 *417:102 0.00018282
66 *221:12 *2029:CLK 0.000169683
67 *221:12 *417:108 5.94125e-05
68 *222:8 *417:108 0
69 *260:10 *417:16 0.00115952
70 *262:36 *1919:CLK 4.96717e-05
71 *264:68 *417:16 0
72 *265:34 *417:16 0
73 *266:35 *1916:CLK 6.69899e-05
74 *307:27 *417:16 8.62876e-05
75 *392:10 *417:91 4.50607e-05
76 *407:225 *1913:CLK 0.000100039
77 *407:225 *417:87 1.69564e-05
78 *408:16 *417:91 0.000150882
79 *408:30 *1913:CLK 0.000397716
80 *408:570 *417:91 0.000139346
81 *409:32 *417:6 9.5877e-05
82 *409:32 *417:8 8.52481e-05
83 *409:38 *417:8 0.000182832
84 *409:38 *417:12 9.41704e-05
85 *409:284 *417:87 7.03766e-05
86 *410:10 *2029:CLK 0.00015954
87 *410:10 *417:108 5.94125e-05
88 *410:16 *417:108 0.000195248
89 *410:22 *417:6 1.94812e-05
*RES
1 *2070:X *417:6 24.0979 
2 *417:6 *417:8 3.00357 
3 *417:8 *417:12 33.2493 
4 *417:12 *417:16 49.3029 
5 *417:16 *1917:CLK 23 
6 *417:12 *417:23 7.54 
7 *417:23 *1916:CLK 40.5479 
8 *417:23 *417:36 3.31429 
9 *417:36 *1919:CLK 39.0979 
10 *417:36 *417:47 2.96214 
11 *417:47 *417:49 15 
12 *417:49 *1915:CLK 23.6214 
13 *417:49 *1918:CLK 36.485 
14 *417:47 *1914:CLK 43.1579 
15 *417:8 *2095:A 23.4971 
16 *417:6 *417:87 17.61 
17 *417:87 *417:91 27.5321 
18 *417:91 *2028:CLK 23 
19 *417:91 *417:102 20.4064 
20 *417:102 *417:108 7.25 
21 *417:108 *2033:CLK 46.9071 
22 *417:108 *2034:CLK 38 
23 *417:102 *2029:CLK 40.2579 
24 *417:87 *1913:CLK 46.2443 
*END

*D_NET *418 0.0159848
*CONN
*I *1904:CLK I *D sky130_fd_sc_hd__dfrtp_1
*I *1909:CLK I *D sky130_fd_sc_hd__dfrtp_1
*I *1903:CLK I *D sky130_fd_sc_hd__dfrtp_1
*I *1908:CLK I *D sky130_fd_sc_hd__dfrtp_1
*I *1912:CLK I *D sky130_fd_sc_hd__dfxtp_1
*I *1906:CLK I *D sky130_fd_sc_hd__dfrtp_1
*I *2031:CLK I *D sky130_fd_sc_hd__dfrtp_4
*I *2030:CLK I *D sky130_fd_sc_hd__dfrtp_4
*I *2035:CLK I *D sky130_fd_sc_hd__dfrtp_1
*I *1911:CLK I *D sky130_fd_sc_hd__dfrtp_1
*I *1902:CLK I *D sky130_fd_sc_hd__dfrtp_1
*I *1905:CLK I *D sky130_fd_sc_hd__dfrtp_1
*I *2032:CLK I *D sky130_fd_sc_hd__dfrtp_1
*I *2027:CLK I *D sky130_fd_sc_hd__dfrtp_4
*I *1910:CLK I *D sky130_fd_sc_hd__dfrtp_1
*I *1907:CLK I *D sky130_fd_sc_hd__dfrtp_1
*I *2071:X O *D sky130_fd_sc_hd__clkbuf_16
*CAP
1 *1904:CLK 0
2 *1909:CLK 0.000105054
3 *1903:CLK 0.000334748
4 *1908:CLK 0
5 *1912:CLK 0.000284374
6 *1906:CLK 0.000322611
7 *2031:CLK 0
8 *2030:CLK 3.09722e-05
9 *2035:CLK 0.000121417
10 *1911:CLK 0
11 *1902:CLK 3.29693e-05
12 *1905:CLK 0
13 *2032:CLK 0
14 *2027:CLK 0.000319515
15 *1910:CLK 0
16 *1907:CLK 0.000205061
17 *2071:X 0
18 *418:160 0.000885108
19 *418:141 0.00130495
20 *418:139 0.000547587
21 *418:137 0.000251432
22 *418:135 0.000843043
23 *418:110 0.000259709
24 *418:97 0.000600367
25 *418:84 0.000387311
26 *418:80 0.000868265
27 *418:65 0.000631321
28 *418:22 0.000376136
29 *418:20 0.000517009
30 *418:16 0.000362449
31 *418:12 0.000460498
32 *418:8 0.000368804
33 *418:4 0.000828575
34 *1902:CLK *2033:RESET_B 9.84851e-05
35 *1902:CLK *460:8 3.22879e-05
36 *1903:CLK *1903:D 7.88926e-05
37 *1906:CLK *1906:RESET_B 5.47927e-05
38 *1907:CLK *476:14 0
39 *1912:CLK *475:12 0.000234028
40 *1912:CLK *477:49 0.000109525
41 *2030:CLK *2030:RESET_B 2.93747e-05
42 *418:12 *1902:D 0
43 *418:16 *1905:D 7.88926e-05
44 *418:16 *493:8 7.42621e-05
45 *418:20 *493:8 9.84851e-05
46 *418:22 *476:14 0
47 *418:65 *1902:D 0
48 *418:84 *446:121 9.39056e-05
49 *418:84 *446:131 1.37349e-05
50 *418:97 *446:131 0.00021341
51 *418:97 *446:135 2.02508e-05
52 *418:97 *496:10 5.82853e-05
53 *418:110 *446:135 0.000114774
54 *418:110 *458:80 0
55 *418:110 *491:10 0
56 *418:110 *496:10 0.000157309
57 *418:135 *446:12 8.41012e-05
58 *418:135 *446:49 0.00010403
59 *418:135 *446:59 4.94517e-05
60 *418:135 *461:14 2.98648e-05
61 *418:135 *461:20 1.59094e-05
62 *418:135 *477:49 0.000275878
63 *418:135 *486:12 8.62783e-05
64 *418:137 *446:12 9.52677e-05
65 *418:137 *446:14 4.6318e-06
66 *418:137 *477:49 9.52677e-05
67 *418:139 *446:14 2.70366e-05
68 *418:139 *475:12 0.000197479
69 *418:139 *477:49 0.000123326
70 *418:141 *475:12 0.000408138
71 *418:141 *477:49 0.000206313
72 *418:160 *1908:RESET_B 0.000308218
73 *418:160 *1923:CLK 9.17998e-05
74 *1912:D *1912:CLK 0.000354122
75 *5:9 *418:12 0
76 *5:9 *418:65 0
77 *5:9 *418:80 0
78 *27:6 *418:160 1.59094e-05
79 *216:14 *418:16 0.000490778
80 *216:14 *418:20 3.17634e-05
81 *216:18 *418:16 0
82 *216:22 *2027:CLK 0
83 *218:23 *2027:CLK 2.5415e-05
84 *415:27 *2027:CLK 5.38249e-05
*RES
1 *2071:X *418:4 23 
2 *418:4 *418:8 15.6214 
3 *418:8 *418:12 16.9057 
4 *418:12 *418:16 10.1707 
5 *418:16 *418:20 16.0979 
6 *418:20 *418:22 2.96214 
7 *418:22 *1907:CLK 41.7079 
8 *418:22 *1910:CLK 38 
9 *418:20 *2027:CLK 43.1579 
10 *418:16 *2032:CLK 23 
11 *418:12 *1905:CLK 23 
12 *418:8 *418:65 3.66643 
13 *418:65 *1902:CLK 39.0979 
14 *418:65 *418:80 22.395 
15 *418:80 *418:84 17.9621 
16 *418:84 *1911:CLK 38 
17 *418:84 *418:97 6.89786 
18 *418:97 *2035:CLK 40.0507 
19 *418:97 *418:110 20.4271 
20 *418:110 *2030:CLK 23.6214 
21 *418:110 *2031:CLK 23 
22 *418:80 *1906:CLK 28.3857 
23 *418:4 *418:135 29.355 
24 *418:135 *418:137 2.61 
25 *418:137 *418:139 3.31429 
26 *418:139 *418:141 5.42714 
27 *418:141 *1912:CLK 45.2707 
28 *418:141 *418:160 31.5093 
29 *418:160 *1908:CLK 23 
30 *418:139 *1903:CLK 43.3857 
31 *418:137 *1909:CLK 39.595 
32 *418:135 *1904:CLK 38 
*END

*D_NET *419 0.0114059
*CONN
*I *2038:CLK I *D sky130_fd_sc_hd__dfxtp_1
*I *1974:CLK I *D sky130_fd_sc_hd__dfxtp_1
*I *2005:CLK I *D sky130_fd_sc_hd__dfxtp_1
*I *2015:CLK I *D sky130_fd_sc_hd__dfxtp_1
*I *2088:A I *D sky130_fd_sc_hd__clkbuf_8
*I *2021:CLK I *D sky130_fd_sc_hd__dfxtp_1
*I *2064:CLK I *D sky130_fd_sc_hd__dfxtp_1
*I *1988:CLK I *D sky130_fd_sc_hd__dfxtp_1
*I *2046:CLK I *D sky130_fd_sc_hd__dfxtp_1
*I *2062:CLK I *D sky130_fd_sc_hd__dfxtp_1
*I *2013:CLK I *D sky130_fd_sc_hd__dfxtp_1
*I *1972:CLK I *D sky130_fd_sc_hd__dfxtp_1
*I *2072:X O *D sky130_fd_sc_hd__clkbuf_8
*CAP
1 *2038:CLK 0
2 *1974:CLK 0.000166381
3 *2005:CLK 0.00017491
4 *2015:CLK 0.000184453
5 *2088:A 0
6 *2021:CLK 0
7 *2064:CLK 0.000135847
8 *1988:CLK 0
9 *2046:CLK 0
10 *2062:CLK 0.000397398
11 *2013:CLK 0
12 *1972:CLK 0
13 *2072:X 8.18661e-05
14 *419:113 0.000417516
15 *419:100 0.000317927
16 *419:76 0.000156202
17 *419:70 0.000475184
18 *419:63 0.000559107
19 *419:59 0.000466153
20 *419:44 0.000991611
21 *419:26 0.00037743
22 *419:18 0.000671771
23 *419:14 0.00144322
24 *419:12 0.000698627
25 *419:8 0.000111028
26 *419:6 8.18661e-05
27 *419:14 *453:57 0.000316338
28 *1738:A1 *1974:CLK 1.41129e-05
29 *1738:A1 *2005:CLK 4.67488e-05
30 *1738:S *1974:CLK 0.00031495
31 *1835:A1 *419:14 4.50386e-05
32 *2013:D *419:18 0.000146207
33 *2021:D *419:63 0.000365767
34 *2046:D *2064:CLK 0.000127821
35 *2046:D *419:70 0.000228597
36 *101:8 *419:76 0
37 *109:10 *419:14 0.000230541
38 *117:8 *419:26 0
39 *119:10 *419:113 0
40 *141:8 *419:76 9.48381e-06
41 *251:14 *1974:CLK 0.000228909
42 *251:14 *419:12 0.000167452
43 *251:14 *419:100 0.000223043
44 *251:14 *419:113 0.000194318
45 *253:8 *1974:CLK 3.22879e-05
46 *275:63 *2064:CLK 0.00012377
47 *278:47 *419:12 0.000169683
48 *278:47 *419:100 0.000216051
49 *278:47 *419:113 0.000210659
50 *337:10 *2064:CLK 2.30292e-05
51 *345:8 *419:76 0
52 *353:10 *419:63 2.30292e-05
53 *353:10 *419:70 5.37348e-06
54 *377:10 *419:14 3.41749e-05
*RES
1 *2072:X *419:6 24.0979 
2 *419:6 *419:8 15 
3 *419:8 *419:12 17.2579 
4 *419:12 *419:14 12.0557 
5 *419:14 *419:18 5.40643 
6 *419:18 *419:26 37.0014 
7 *419:26 *1972:CLK 23 
8 *419:18 *2013:CLK 23 
9 *419:14 *419:44 24.715 
10 *419:44 *2062:CLK 44.4421 
11 *419:44 *419:59 16.5743 
12 *419:59 *419:63 8.265 
13 *419:63 *2046:CLK 23 
14 *419:63 *419:70 3.95643 
15 *419:70 *419:76 32.61 
16 *419:76 *1988:CLK 23 
17 *419:70 *2064:CLK 26.9564 
18 *419:59 *2021:CLK 23 
19 *419:12 *2088:A 23 
20 *419:8 *419:100 2.96214 
21 *419:100 *2015:CLK 41.0036 
22 *419:100 *419:113 17.9621 
23 *419:113 *2005:CLK 25.5271 
24 *419:113 *1974:CLK 28.3857 
25 *419:6 *2038:CLK 23 
*END

*D_NET *420 0.0108904
*CONN
*I *2058:CLK I *D sky130_fd_sc_hd__dfxtp_1
*I *1985:CLK I *D sky130_fd_sc_hd__dfxtp_1
*I *1968:CLK I *D sky130_fd_sc_hd__dfxtp_1
*I *1936:CLK I *D sky130_fd_sc_hd__dfxtp_1
*I *1982:CLK I *D sky130_fd_sc_hd__dfxtp_1
*I *2103:A I *D sky130_fd_sc_hd__clkbuf_8
*I *1958:CLK I *D sky130_fd_sc_hd__dfxtp_1
*I *1898:CLK I *D sky130_fd_sc_hd__dfxtp_1
*I *1966:CLK I *D sky130_fd_sc_hd__dfxtp_1
*I *1901:CLK I *D sky130_fd_sc_hd__dfxtp_1
*I *1969:CLK I *D sky130_fd_sc_hd__dfxtp_1
*I *1961:CLK I *D sky130_fd_sc_hd__dfxtp_1
*I *2073:X O *D sky130_fd_sc_hd__clkbuf_8
*CAP
1 *2058:CLK 0
2 *1985:CLK 0
3 *1968:CLK 0
4 *1936:CLK 0
5 *1982:CLK 0
6 *2103:A 0
7 *1958:CLK 0.000176017
8 *1898:CLK 0
9 *1966:CLK 0.000261475
10 *1901:CLK 0
11 *1969:CLK 0
12 *1961:CLK 0
13 *2073:X 0.000220766
14 *420:131 0.000634555
15 *420:121 0.000935514
16 *420:105 0.000479269
17 *420:97 0.000653163
18 *420:59 0.00039896
19 *420:57 0.000435381
20 *420:43 0.000154734
21 *420:35 0.000358105
22 *420:22 0.000579244
23 *420:16 0.00104836
24 *420:14 0.000744257
25 *420:12 0.000480323
26 *420:8 0.000413742
27 *420:6 0.000220766
28 *420:16 *436:10 9.01041e-05
29 *420:22 *436:10 5.12328e-05
30 *420:22 *436:21 0
31 *420:35 *436:21 0
32 *420:131 *436:36 4.16764e-05
33 *420:131 *436:48 3.21926e-05
34 *420:131 *457:6 8.93451e-05
35 *420:131 *457:10 0
36 *420:131 *457:12 0
37 *420:131 *457:172 0
38 *1958:D *1958:CLK 0.000146207
39 *1966:D *1966:CLK 1.64354e-05
40 *1968:D *420:131 1.64354e-05
41 *1985:D *420:121 8.50888e-05
42 *71:8 *1966:CLK 5.93381e-05
43 *71:8 *420:59 7.66085e-05
44 *74:8 *420:22 0
45 *79:10 *1966:CLK 2.96369e-05
46 *81:10 *420:131 0.000108681
47 *82:8 *420:43 0
48 *98:10 *420:131 0.000164282
49 *262:115 *420:105 0
50 *262:130 *420:131 0
51 *266:65 *420:6 0.000403333
52 *266:71 *420:57 0
53 *267:95 *1966:CLK 0
54 *267:95 *420:22 0
55 *267:95 *420:35 0
56 *267:95 *420:43 0.000199701
57 *267:95 *420:57 0
58 *267:95 *420:59 0
59 *270:66 *420:131 1.83667e-05
60 *291:12 *1966:CLK 0.0002263
61 *398:25 *420:121 0.000107658
62 *398:25 *420:131 8.16356e-05
63 *407:128 *420:12 0.000223043
64 *407:128 *420:105 0
65 *407:128 *420:121 0.000208809
66 *408:469 *420:105 0.00021967
*RES
1 *2073:X *420:6 27.4329 
2 *420:6 *420:8 15 
3 *420:8 *420:12 17.9621 
4 *420:12 *420:14 3.00357 
5 *420:14 *420:16 10.6264 
6 *420:16 *420:22 22.3536 
7 *420:22 *1961:CLK 38 
8 *420:22 *420:35 18.9357 
9 *420:35 *420:43 33.7079 
10 *420:43 *1969:CLK 23 
11 *420:35 *1901:CLK 23 
12 *420:16 *420:57 17.2579 
13 *420:57 *420:59 3.31429 
14 *420:59 *1966:CLK 44.1107 
15 *420:59 *1898:CLK 38 
16 *420:57 *1958:CLK 41.5007 
17 *420:14 *2103:A 23 
18 *420:12 *420:97 2.52714 
19 *420:97 *420:105 38.8657 
20 *420:105 *1982:CLK 23 
21 *420:97 *1936:CLK 23 
22 *420:8 *420:121 21.4421 
23 *420:121 *420:131 43.6093 
24 *420:131 *1968:CLK 23 
25 *420:121 *1985:CLK 23 
26 *420:6 *2058:CLK 23 
*END

*D_NET *421 0.0123523
*CONN
*I *1933:CLK I *D sky130_fd_sc_hd__dfxtp_1
*I *2055:CLK I *D sky130_fd_sc_hd__dfxtp_1
*I *1952:CLK I *D sky130_fd_sc_hd__dfxtp_1
*I *1945:CLK I *D sky130_fd_sc_hd__dfxtp_1
*I *2090:A I *D sky130_fd_sc_hd__clkinv_2
*I *1957:CLK I *D sky130_fd_sc_hd__dfxtp_1
*I *1965:CLK I *D sky130_fd_sc_hd__dfxtp_1
*I *1984:CLK I *D sky130_fd_sc_hd__dfxtp_1
*I *1960:CLK I *D sky130_fd_sc_hd__dfxtp_1
*I *1900:CLK I *D sky130_fd_sc_hd__dfxtp_1
*I *1944:CLK I *D sky130_fd_sc_hd__dfxtp_1
*I *2074:X O *D sky130_fd_sc_hd__clkbuf_8
*CAP
1 *1933:CLK 9.02962e-05
2 *2055:CLK 8.59828e-05
3 *1952:CLK 0
4 *1945:CLK 0
5 *2090:A 0.000259443
6 *1957:CLK 0.000289118
7 *1965:CLK 2.34823e-05
8 *1984:CLK 0
9 *1960:CLK 0.000399613
10 *1900:CLK 0
11 *1944:CLK 0.00035235
12 *2074:X 0
13 *421:97 0.000452835
14 *421:82 0.000924603
15 *421:78 0.000382168
16 *421:33 0.000655711
17 *421:22 0.00070539
18 *421:18 0.000500516
19 *421:14 0.000560452
20 *421:10 0.00105182
21 *421:4 0.000803458
22 *1944:CLK *457:12 0
23 *1944:CLK *457:18 0
24 *421:97 *436:184 0.000140259
25 *1656:A1 *421:82 4.60646e-05
26 *1660:B2 *421:10 8.62876e-05
27 *1792:A1 *1944:CLK 0.000105072
28 *1792:A1 *421:33 0.000140671
29 *1820:A0 *1957:CLK 0
30 *1952:D *2090:A 0.000126488
31 *1952:D *421:82 4.5051e-05
32 *1960:D *1960:CLK 0.000189681
33 *1965:D *421:14 0.000146207
34 *1984:D *421:18 0.000401843
35 *65:10 *421:10 8.51225e-05
36 *65:10 *421:97 1.58805e-05
37 *70:10 *1957:CLK 4.83778e-05
38 *73:8 *1944:CLK 0
39 *73:8 *1960:CLK 0
40 *73:8 *421:33 0
41 *78:10 *421:10 5.26101e-05
42 *164:34 *421:10 0.000108681
43 *187:10 *421:10 0
44 *190:18 *421:10 0
45 *190:18 *421:97 0.000203108
46 *193:10 *421:97 0
47 *194:12 *421:78 0.000138718
48 *197:20 *421:10 0.000450174
49 *231:80 *1944:CLK 1.01436e-05
50 *265:85 *421:78 2.17761e-05
51 *266:49 *421:10 0
52 *266:61 *1944:CLK 0.000434093
53 *267:85 *421:14 3.45353e-05
54 *267:85 *421:18 9.57904e-05
55 *267:85 *421:22 8.82787e-06
56 *267:87 *421:22 8.68125e-05
57 *290:12 *1957:CLK 0
58 *290:12 *421:10 0
59 *293:12 *421:33 8.62876e-05
60 *298:12 *1957:CLK 0
61 *301:10 *1960:CLK 7.28526e-05
62 *301:10 *421:33 7.80251e-05
63 *309:14 *2090:A 0.000228888
64 *310:27 *421:97 4.6318e-06
65 *317:14 *421:10 0
66 *325:27 *2090:A 3.34129e-05
67 *397:10 *1957:CLK 0
68 *397:10 *421:18 5.50106e-05
69 *407:61 *1933:CLK 6.37845e-05
70 *407:61 *421:10 6.99492e-05
71 *408:484 *2090:A 0.000398503
72 *410:88 *2055:CLK 0.000171296
73 *410:88 *421:82 5.50106e-05
74 *410:96 *421:10 8.67978e-05
75 *410:96 *421:78 0.00018835
*RES
1 *2074:X *421:4 23 
2 *421:4 *421:10 28.6921 
3 *421:10 *421:14 18.0036 
4 *421:14 *421:18 8.74143 
5 *421:18 *421:22 17.0507 
6 *421:22 *1944:CLK 46.5964 
7 *421:22 *421:33 5.77929 
8 *421:33 *1900:CLK 38 
9 *421:33 *1960:CLK 46.4721 
10 *421:18 *1984:CLK 23 
11 *421:14 *1965:CLK 23.4971 
12 *421:10 *1957:CLK 43.075 
13 *421:4 *421:78 32.61 
14 *421:78 *421:82 3.97714 
15 *421:82 *2090:A 31.2443 
16 *421:82 *421:97 39.8186 
17 *421:97 *1945:CLK 23 
18 *421:82 *1952:CLK 23 
19 *421:78 *2055:CLK 25.0507 
20 *421:4 *1933:CLK 24.5743 
*END

*D_NET *422 0.00972863
*CONN
*I *1938:CLK I *D sky130_fd_sc_hd__dfxtp_1
*I *1946:CLK I *D sky130_fd_sc_hd__dfxtp_1
*I *1930:CLK I *D sky130_fd_sc_hd__dfxtp_1
*I *1978:CLK I *D sky130_fd_sc_hd__dfxtp_1
*I *2091:A I *D sky130_fd_sc_hd__clkinv_4
*I *1954:CLK I *D sky130_fd_sc_hd__dfxtp_1
*I *1951:CLK I *D sky130_fd_sc_hd__dfxtp_1
*I *1962:CLK I *D sky130_fd_sc_hd__dfxtp_1
*I *2075:X O *D sky130_fd_sc_hd__clkbuf_8
*CAP
1 *1938:CLK 0.000343708
2 *1946:CLK 0
3 *1930:CLK 0
4 *1978:CLK 0
5 *2091:A 0.000367344
6 *1954:CLK 5.33465e-05
7 *1951:CLK 0.000266366
8 *1962:CLK 0.000132701
9 *2075:X 6.96534e-05
10 *422:43 0.000443434
11 *422:26 0.000903719
12 *422:20 0.00103812
13 *422:18 0.000239669
14 *422:12 0.000594309
15 *422:10 0.000378122
16 *422:8 0.000413361
17 *1938:CLK *451:177 0.000119528
18 *1951:CLK *456:177 5.3304e-05
19 *2091:A *1795:A1 0.000112612
20 *422:18 *451:143 0
21 *422:18 *451:158 0
22 *422:26 *1795:A1 0.000188693
23 *1782:A0 *1951:CLK 8.04014e-05
24 *1782:A0 *1954:CLK 0
25 *1814:A0 *422:18 0
26 *1930:D *422:12 0.000143599
27 *1938:D *1938:CLK 0.000125587
28 *1951:D *1951:CLK 0.000111596
29 *1962:D *1962:CLK 5.50106e-05
30 *1978:D *2091:A 1.64354e-05
31 *75:10 *422:26 0.000263686
32 *91:10 *422:18 4.2361e-05
33 *163:36 *422:26 0.000310653
34 *231:24 *1938:CLK 9.41704e-05
35 *260:10 *422:26 0
36 *260:10 *422:43 0
37 *263:26 *1962:CLK 1.83716e-05
38 *263:26 *422:26 8.62876e-05
39 *263:95 *422:18 0.000406279
40 *264:16 *422:12 0.000157322
41 *265:26 *1951:CLK 7.88926e-05
42 *265:26 *1954:CLK 1.9024e-05
43 *265:34 *1962:CLK 2.24608e-05
44 *265:34 *422:26 5.13205e-05
45 *265:34 *422:43 4.04787e-05
46 *266:19 *1938:CLK 0.000421699
47 *266:19 *422:8 0.000163343
48 *311:10 *1938:CLK 6.59998e-05
49 *391:10 *2091:A 0.000241703
50 *409:52 *1938:CLK 0.00042645
51 *409:52 *422:8 0.000163343
52 *416:113 *422:12 0.000349813
53 *417:16 *422:26 5.43545e-05
*RES
1 *2075:X *422:8 40.2579 
2 *422:8 *422:10 15 
3 *422:10 *422:12 8.72071 
4 *422:12 *422:18 35.4271 
5 *422:18 *422:20 0.497143 
6 *422:20 *422:26 30.1525 
7 *422:26 *1962:CLK 40.0404 
8 *422:26 *422:43 17.0818 
9 *422:43 *1951:CLK 28.8829 
10 *422:43 *1954:CLK 24.1186 
11 *422:20 *2091:A 31.2443 
12 *422:18 *1978:CLK 23 
13 *422:12 *1930:CLK 23 
14 *422:10 *1946:CLK 23 
15 *422:8 *1938:CLK 47.7357 
*END

*D_NET *423 0.0114439
*CONN
*I *1928:CLK I *D sky130_fd_sc_hd__dfrtp_1
*I *1923:CLK I *D sky130_fd_sc_hd__dfrtp_1
*I *1924:CLK I *D sky130_fd_sc_hd__dfrtp_1
*I *1999:CLK I *D sky130_fd_sc_hd__dfrtp_1
*I *2092:A I *D sky130_fd_sc_hd__bufinv_16
*I *1998:CLK I *D sky130_fd_sc_hd__dfrtp_2
*I *1929:CLK I *D sky130_fd_sc_hd__dfrtp_1
*I *2001:CLK I *D sky130_fd_sc_hd__dfrtp_1
*I *1997:CLK I *D sky130_fd_sc_hd__dfrtp_1
*I *2002:CLK I *D sky130_fd_sc_hd__dfrtp_1
*I *2076:X O *D sky130_fd_sc_hd__clkbuf_8
*CAP
1 *1928:CLK 0
2 *1923:CLK 7.66204e-05
3 *1924:CLK 0.00031892
4 *1999:CLK 0
5 *2092:A 0
6 *1998:CLK 0
7 *1929:CLK 0.000348436
8 *2001:CLK 0.000108627
9 *1997:CLK 0.000147461
10 *2002:CLK 0.000203299
11 *2076:X 0
12 *423:95 0.000545518
13 *423:93 0.000465739
14 *423:78 0.00104292
15 *423:33 0.000394565
16 *423:29 0.00067866
17 *423:14 0.000520734
18 *423:12 0.000291593
19 *423:10 0.000460855
20 *423:4 0.00102211
21 *1923:CLK *1908:RESET_B 0.000178517
22 *1924:CLK *1924:D 1.59094e-05
23 *1924:CLK *1929:D 4.67488e-05
24 *1924:CLK *460:14 0
25 *1924:CLK *461:20 0.000391337
26 *1929:CLK *1999:RESET_B 1.94812e-05
27 *1929:CLK *502:8 0.000223698
28 *1997:CLK *474:12 0
29 *1997:CLK *500:10 1.94418e-05
30 *2001:CLK *2002:RESET_B 0.000147834
31 *2001:CLK *447:16 0.000198206
32 *2002:CLK *505:10 0.000215782
33 *423:10 *501:10 7.66085e-05
34 *423:12 *1998:RESET_B 0
35 *423:12 *501:10 0.000140212
36 *423:14 *1998:RESET_B 0
37 *423:14 *505:10 0.000108681
38 *423:29 *1700:B 1.22822e-05
39 *423:29 *502:8 0.000227208
40 *423:33 *474:12 0
41 *423:33 *476:14 4.73585e-05
42 *423:78 *473:10 0.00010655
43 *423:78 *484:10 7.53384e-06
44 *423:78 *502:16 0.000320944
45 *423:93 *460:14 0
46 *423:93 *461:20 0.0002499
47 *423:93 *484:10 2.93747e-05
48 *423:95 *460:14 0
49 *423:95 *461:20 0.000246748
50 *1705:A *423:29 0.0002263
51 *1705:B *423:29 0.000228001
52 *1706:A1 *1997:CLK 5.50049e-05
53 *1710:A *2002:CLK 1.47563e-05
54 *1712:B *1929:CLK 1.03955e-05
55 *1712:B *423:29 2.62931e-05
56 *1715:B *2002:CLK 0
57 *1715:B *423:14 0
58 *165:29 *1997:CLK 2.30292e-05
59 *231:12 *423:10 0.000107548
60 *231:12 *423:12 0.000217562
61 *231:12 *423:14 7.91493e-05
62 *231:151 *423:29 0.000139352
63 *231:159 *1929:CLK 0.000182832
64 *231:159 *423:33 3.70094e-05
65 *232:10 *2002:CLK 0
66 *411:196 *1997:CLK 0.000138718
67 *411:196 *423:33 0.000209729
68 *418:160 *1923:CLK 9.17998e-05
*RES
1 *2076:X *423:4 23 
2 *423:4 *423:10 21.4421 
3 *423:10 *423:12 5.77929 
4 *423:12 *423:14 2.61 
5 *423:14 *2002:CLK 41.9357 
6 *423:14 *423:29 21.3386 
7 *423:29 *423:33 18.6664 
8 *423:33 *1997:CLK 41.2314 
9 *423:33 *2001:CLK 41.9564 
10 *423:29 *1929:CLK 30.3121 
11 *423:12 *1998:CLK 38 
12 *423:10 *2092:A 38 
13 *423:4 *423:78 15.8671 
14 *423:78 *1999:CLK 23 
15 *423:78 *423:93 21.4836 
16 *423:93 *423:95 3.31429 
17 *423:95 *1924:CLK 44.525 
18 *423:95 *1923:CLK 40.0507 
19 *423:93 *1928:CLK 38 
*END

*D_NET *424 0.0101506
*CONN
*I *1941:CLK I *D sky130_fd_sc_hd__dfxtp_1
*I *1897:CLK I *D sky130_fd_sc_hd__dfxtp_1
*I *1963:CLK I *D sky130_fd_sc_hd__dfxtp_1
*I *1981:CLK I *D sky130_fd_sc_hd__dfxtp_1
*I *1931:CLK I *D sky130_fd_sc_hd__dfxtp_1
*I *1942:CLK I *D sky130_fd_sc_hd__dfxtp_1
*I *2052:CLK I *D sky130_fd_sc_hd__dfxtp_1
*I *1950:CLK I *D sky130_fd_sc_hd__dfxtp_1
*I *2093:A I *D sky130_fd_sc_hd__clkinvlp_4
*I *2077:X O *D sky130_fd_sc_hd__clkbuf_8
*CAP
1 *1941:CLK 0
2 *1897:CLK 0.000629831
3 *1963:CLK 0.000408453
4 *1981:CLK 0
5 *1931:CLK 0
6 *1942:CLK 0
7 *2052:CLK 8.0768e-05
8 *1950:CLK 0
9 *2093:A 0
10 *2077:X 9.68376e-05
11 *424:73 0.000408453
12 *424:71 0.00106516
13 *424:65 0.00088493
14 *424:50 0.000543082
15 *424:29 0.000233128
16 *424:25 0.000249404
17 *424:14 0.000260407
18 *424:8 0.000353682
19 *1897:CLK *454:10 0
20 *1897:CLK *454:12 0
21 *1897:CLK *454:14 0
22 *1963:CLK *1817:A1 0.000151016
23 *424:71 *454:16 0
24 *1636:A1 *424:14 0.000139352
25 *1636:A1 *424:25 4.08664e-05
26 *1817:A0 *1963:CLK 9.5877e-05
27 *1941:D *424:65 1.64354e-05
28 *1981:D *1963:CLK 0.000107292
29 *29:12 *424:25 0.000194309
30 *29:12 *424:29 0.000425521
31 *31:14 *424:65 0
32 *31:14 *424:71 0
33 *33:12 *424:65 2.1136e-05
34 *33:12 *424:71 5.50106e-05
35 *33:18 *424:65 0.000484539
36 *33:18 *424:71 1.72202e-05
37 *34:6 *424:65 0.000115857
38 *34:6 *424:71 4.06849e-05
39 *34:14 *424:65 0.000118174
40 *164:18 *424:8 0.000180224
41 *254:8 *424:71 0
42 *260:10 *424:25 0.000182863
43 *260:10 *424:29 0.000427743
44 *264:68 *424:14 9.70859e-05
45 *264:68 *424:50 2.7636e-05
46 *264:95 *424:65 4.48628e-05
47 *270:105 *1963:CLK 0.000180456
48 *270:113 *1897:CLK 0
49 *290:29 *1897:CLK 0
50 *298:27 *1897:CLK 0
51 *314:35 *424:50 8.47428e-05
52 *314:35 *424:65 0.000127598
53 *330:29 *424:65 6.50237e-05
54 *408:384 *2052:CLK 5.2894e-05
55 *408:547 *1963:CLK 9.24795e-06
56 *408:555 *1897:CLK 0.000218943
57 *408:555 *424:71 8.62876e-05
58 *409:160 *424:71 0
59 *409:255 *424:71 0
60 *417:16 *424:14 0.000278634
61 *417:16 *424:50 0.000186451
62 *417:16 *424:65 0.000662489
*RES
1 *2077:X *424:8 40.0507 
2 *424:8 *424:14 20.2407 
3 *424:14 *2093:A 23 
4 *424:14 *424:25 18.2314 
5 *424:25 *424:29 20.7793 
6 *424:29 *1950:CLK 23 
7 *424:29 *2052:CLK 24.5743 
8 *424:25 *1942:CLK 38 
9 *424:8 *424:50 2.61 
10 *424:50 *1931:CLK 38 
11 *424:50 *424:65 29.8314 
12 *424:65 *424:71 21.8771 
13 *424:71 *424:73 15 
14 *424:73 *1981:CLK 23 
15 *424:73 *1963:CLK 31.2857 
16 *424:71 *1897:CLK 48.7714 
17 *424:65 *1941:CLK 23 
*END

*D_NET *425 0.0108816
*CONN
*I *1895:CLK I *D sky130_fd_sc_hd__dfxtp_1
*I *1955:CLK I *D sky130_fd_sc_hd__dfxtp_1
*I *1979:CLK I *D sky130_fd_sc_hd__dfxtp_1
*I *2094:A I *D sky130_fd_sc_hd__clkinv_4
*I *1947:CLK I *D sky130_fd_sc_hd__dfxtp_1
*I *1939:CLK I *D sky130_fd_sc_hd__dfxtp_1
*I *2053:CLK I *D sky130_fd_sc_hd__dfxtp_1
*I *1949:CLK I *D sky130_fd_sc_hd__dfxtp_1
*I *2078:X O *D sky130_fd_sc_hd__clkbuf_8
*CAP
1 *1895:CLK 0
2 *1955:CLK 9.83216e-05
3 *1979:CLK 0
4 *2094:A 6.84975e-05
5 *1947:CLK 0.000613617
6 *1939:CLK 9.4446e-05
7 *2053:CLK 0
8 *1949:CLK 0
9 *2078:X 4.69615e-05
10 *425:107 0.000966907
11 *425:84 0.00125625
12 *425:75 0.000531021
13 *425:44 0.000783349
14 *425:40 0.000249813
15 *425:26 0.000367879
16 *425:16 0.000478189
17 *425:12 0.000373035
18 *425:8 0.000543658
19 *425:26 *452:156 0
20 *425:75 *452:156 0
21 *1622:A *425:26 6.7177e-06
22 *1724:S1 *1947:CLK 5.12254e-05
23 *1731:B2 *425:8 0.000183733
24 *1742:S1 *2094:A 1.41129e-05
25 *1742:S1 *425:16 3.54446e-05
26 *1742:S1 *425:26 0.000113719
27 *1742:S1 *425:40 9.1724e-05
28 *1743:A2 *425:26 5.50106e-05
29 *1747:B2 *425:26 2.9885e-05
30 *1780:A0 *425:26 6.17437e-06
31 *1796:A0 *425:84 0
32 *1918:CLK *425:107 9.84851e-05
33 *1918:D *425:107 1.64354e-05
34 *2053:D *425:16 0.000144256
35 *33:18 *425:107 0
36 *68:8 *1955:CLK 0.00027663
37 *163:16 *425:26 0.00016478
38 *163:108 *425:16 0.000310641
39 *163:108 *425:26 4.95081e-05
40 *163:108 *425:40 1.56665e-05
41 *164:18 *425:26 7.81073e-05
42 *240:10 *1947:CLK 2.64616e-05
43 *263:120 *425:12 0
44 *263:120 *425:26 0.000395901
45 *263:120 *425:75 0
46 *266:19 *425:44 1.13579e-05
47 *270:89 *1939:CLK 0.000271392
48 *270:89 *425:12 0
49 *270:89 *425:44 0.000150724
50 *270:89 *425:75 0
51 *270:89 *425:84 0
52 *270:105 *1955:CLK 0.000374626
53 *288:12 *425:107 0
54 *304:20 *2094:A 0.000225282
55 *304:20 *425:12 1.01436e-05
56 *304:20 *425:40 0.000178517
57 *320:21 *1947:CLK 1.78516e-05
58 *407:18 *1939:CLK 0.000221184
59 *407:43 *1947:CLK 5.3304e-05
60 *407:221 *1939:CLK 5.01986e-05
61 *407:221 *2094:A 0.000181801
62 *407:221 *425:44 0.000135011
63 *408:547 *1955:CLK 4.50844e-05
64 *409:133 *425:8 0.000100733
65 *409:148 *425:75 0
66 *410:43 *425:26 1.88687e-05
67 *410:49 *425:26 0.000140259
68 *416:169 *425:12 5.87296e-05
*RES
1 *2078:X *425:8 40.0507 
2 *425:8 *425:12 17.61 
3 *425:12 *425:16 3.97714 
4 *425:16 *425:26 40.3986 
5 *425:26 *1949:CLK 23 
6 *425:16 *2053:CLK 23 
7 *425:12 *425:40 3.02429 
8 *425:40 *425:44 17.2579 
9 *425:44 *1939:CLK 41.6664 
10 *425:44 *1947:CLK 46.2857 
11 *425:40 *2094:A 25.5271 
12 *425:8 *425:75 5.77929 
13 *425:75 *1979:CLK 38 
14 *425:75 *425:84 3.31429 
15 *425:84 *1955:CLK 43.075 
16 *425:84 *425:107 31.9029 
17 *425:107 *1895:CLK 23 
*END

*D_NET *426 0.0131837
*CONN
*I *1975:CLK I *D sky130_fd_sc_hd__dfxtp_1
*I *2008:CLK I *D sky130_fd_sc_hd__dfxtp_1
*I *2040:CLK I *D sky130_fd_sc_hd__dfxtp_1
*I *2016:CLK I *D sky130_fd_sc_hd__dfxtp_1
*I *1990:CLK I *D sky130_fd_sc_hd__dfxtp_1
*I *2024:CLK I *D sky130_fd_sc_hd__dfxtp_1
*I *2065:CLK I *D sky130_fd_sc_hd__dfxtp_1
*I *2023:CLK I *D sky130_fd_sc_hd__dfxtp_1
*I *2048:CLK I *D sky130_fd_sc_hd__dfxtp_1
*I *2089:A I *D sky130_fd_sc_hd__clkinv_2
*I *2007:CLK I *D sky130_fd_sc_hd__dfxtp_1
*I *2079:X O *D sky130_fd_sc_hd__clkbuf_8
*CAP
1 *1975:CLK 0
2 *2008:CLK 0.000339752
3 *2040:CLK 0.000748815
4 *2016:CLK 0.000290264
5 *1990:CLK 0
6 *2024:CLK 0.00024797
7 *2065:CLK 0.000603999
8 *2023:CLK 0.000519986
9 *2048:CLK 0
10 *2089:A 2.34823e-05
11 *2007:CLK 0
12 *2079:X 0
13 *426:98 0.00124286
14 *426:83 0.000622763
15 *426:79 0.000569075
16 *426:63 0.00024797
17 *426:43 0.00114747
18 *426:36 0.0002148
19 *426:32 0.000714362
20 *426:28 0.00101774
21 *426:14 0.000150565
22 *426:6 0.000309779
23 *426:4 0.000239554
24 *426:32 *455:31 0.000167443
25 *426:32 *455:42 0.000250839
26 *426:32 *455:55 0.000192096
27 *426:98 *456:41 0
28 *426:98 *456:52 0
29 *1634:S1 *426:83 0
30 *1990:D *2024:CLK 0.000407054
31 *2016:D *2016:CLK 0.000189681
32 *2023:D *2023:CLK 0.000143599
33 *2040:D *2040:CLK 5.6508e-05
34 *2048:D *2065:CLK 0.000146207
35 *2079:A *426:6 0.000170365
36 *2079:A *426:14 7.73389e-05
37 *2079:A *426:28 6.08617e-05
38 *2079:A *426:79 0.000114856
39 *88:10 *426:83 8.08511e-05
40 *88:10 *426:98 3.5664e-05
41 *120:8 *426:83 9.48381e-06
42 *120:8 *426:98 7.88399e-05
43 *143:8 *426:36 0
44 *174:14 *426:32 0
45 *175:8 *426:98 0.000114083
46 *269:41 *2008:CLK 5.97178e-05
47 *269:41 *2040:CLK 0.000271792
48 *272:109 *426:14 9.98995e-05
49 *274:49 *426:98 0.000139657
50 *275:57 *2024:CLK 0.000163496
51 *283:10 *2024:CLK 1.94812e-05
52 *347:12 *426:36 1.69668e-05
53 *347:27 *2024:CLK 0.000125416
54 *355:8 *426:32 0.000204337
55 *355:8 *426:36 0.000168744
56 *363:27 *426:32 8.16356e-05
57 *380:12 *2008:CLK 9.62666e-05
58 *407:463 *2016:CLK 3.46673e-05
59 *407:467 *2016:CLK 2.81409e-05
60 *407:477 *426:32 1.42006e-05
61 *407:501 *426:83 4.3407e-05
62 *416:43 *426:14 6.88552e-05
*RES
1 *2079:X *426:4 23 
2 *426:4 *426:6 3.48 
3 *426:6 *426:14 34.1843 
4 *426:14 *2007:CLK 23 
5 *426:6 *2089:A 23.4971 
6 *426:4 *426:28 1.57429 
7 *426:28 *426:32 26.4136 
8 *426:32 *426:36 17.9621 
9 *426:36 *2048:CLK 23 
10 *426:36 *426:43 0.497143 
11 *426:43 *2023:CLK 31.265 
12 *426:43 *2065:CLK 33.6471 
13 *426:32 *426:63 15 
14 *426:63 *2024:CLK 31.265 
15 *426:63 *1990:CLK 23 
16 *426:28 *426:79 6.815 
17 *426:79 *426:83 18.3143 
18 *426:83 *2016:CLK 43.4064 
19 *426:83 *426:98 19.7229 
20 *426:98 *2040:CLK 35.1179 
21 *426:98 *2008:CLK 28.8829 
22 *426:79 *1975:CLK 23 
*END

*D_NET *427 0.0115973
*CONN
*I *2067:CLK I *D sky130_fd_sc_hd__dfxtp_1
*I *2042:CLK I *D sky130_fd_sc_hd__dfxtp_1
*I *1976:CLK I *D sky130_fd_sc_hd__dfxtp_1
*I *1977:CLK I *D sky130_fd_sc_hd__dfxtp_1
*I *2026:CLK I *D sky130_fd_sc_hd__dfxtp_1
*I *2043:CLK I *D sky130_fd_sc_hd__dfxtp_1
*I *2010:CLK I *D sky130_fd_sc_hd__dfxtp_1
*I *2018:CLK I *D sky130_fd_sc_hd__dfxtp_1
*I *2017:CLK I *D sky130_fd_sc_hd__dfxtp_1
*I *2025:CLK I *D sky130_fd_sc_hd__dfxtp_1
*I *2009:CLK I *D sky130_fd_sc_hd__dfxtp_1
*I *2096:A I *D sky130_fd_sc_hd__clkbuf_8
*I *2080:X O *D sky130_fd_sc_hd__clkbuf_8
*CAP
1 *2067:CLK 2.45968e-05
2 *2042:CLK 2.30556e-05
3 *1976:CLK 0
4 *1977:CLK 0.000102713
5 *2026:CLK 6.48508e-05
6 *2043:CLK 0
7 *2010:CLK 2.30556e-05
8 *2018:CLK 0
9 *2017:CLK 6.516e-05
10 *2025:CLK 8.30801e-05
11 *2009:CLK 0.00012632
12 *2096:A 5.98366e-05
13 *2080:X 3.38673e-05
14 *427:94 0.000324
15 *427:79 0.00107313
16 *427:70 0.000945974
17 *427:66 0.000818724
18 *427:53 0.000838682
19 *427:47 0.000905116
20 *427:43 0.00133094
21 *427:23 0.0002094
22 *427:21 0.000723457
23 *427:10 0.000310792
24 *427:6 0.000201299
25 *2096:A *1866:A1 0.000137651
26 *427:10 *453:90 0
27 *427:21 *453:90 0
28 *427:43 *453:90 0
29 *427:94 *436:100 1.32314e-05
30 *427:94 *436:104 0.00011641
31 *1866:A0 *2096:A 9.5877e-05
32 *1866:A0 *427:21 0.000167443
33 *1866:A0 *427:43 0.000237534
34 *1976:D *427:47 0.000187079
35 *2010:D *427:79 1.64354e-05
36 *2018:D *427:79 1.64354e-05
37 *2042:D *427:43 1.64354e-05
38 *121:8 *427:53 0.000225265
39 *121:8 *427:66 1.14452e-05
40 *122:8 *427:66 5.61414e-05
41 *122:8 *427:70 6.28591e-05
42 *269:101 *2009:CLK 9.01952e-05
43 *269:101 *2025:CLK 0.000100733
44 *269:127 *427:79 0.000227208
45 *273:84 *427:10 2.24973e-05
46 *273:84 *427:21 6.61686e-06
47 *273:84 *427:94 0.000164291
48 *274:61 *427:66 0
49 *274:74 *427:66 0
50 *276:86 *427:10 0.000195248
51 *276:86 *427:94 3.83059e-05
52 *365:8 *427:43 5.3304e-05
53 *366:25 *427:94 8.62783e-05
54 *374:10 *427:79 9.04602e-05
55 *374:33 *427:79 1.53468e-05
56 *382:31 *427:79 0.000665892
57 *407:311 *2026:CLK 9.41704e-05
58 *416:28 *2067:CLK 4.34745e-05
59 *416:28 *427:6 5.50106e-05
*RES
1 *2080:X *427:6 23.6214 
2 *427:6 *427:10 18.3143 
3 *427:10 *2096:A 39.5743 
4 *427:10 *427:21 2.61 
5 *427:21 *427:23 15 
6 *427:23 *2009:CLK 25.0507 
7 *427:23 *2025:CLK 25.0507 
8 *427:21 *427:43 25.1293 
9 *427:43 *427:47 11.4757 
10 *427:47 *427:53 19.5364 
11 *427:53 *2017:CLK 39.2429 
12 *427:53 *427:66 11.4136 
13 *427:66 *427:70 17.61 
14 *427:70 *2018:CLK 23 
15 *427:70 *427:79 17.3171 
16 *427:79 *2010:CLK 23.4971 
17 *427:79 *427:94 35.2614 
18 *427:94 *2043:CLK 23 
19 *427:94 *2026:CLK 24.0979 
20 *427:66 *1977:CLK 39.5743 
21 *427:47 *1976:CLK 23 
22 *427:43 *2042:CLK 23.4971 
23 *427:6 *2067:CLK 23.6214 
*END

*D_NET *428 0.00628304
*CONN
*I *2050:CLK I *D sky130_fd_sc_hd__dfxtp_1
*I *2022:CLK I *D sky130_fd_sc_hd__dfxtp_1
*I *2063:CLK I *D sky130_fd_sc_hd__dfxtp_1
*I *1992:CLK I *D sky130_fd_sc_hd__dfxtp_1
*I *2097:A I *D sky130_fd_sc_hd__bufinv_16
*I *2051:CLK I *D sky130_fd_sc_hd__dfxtp_1
*I *2006:CLK I *D sky130_fd_sc_hd__dfxtp_1
*I *1973:CLK I *D sky130_fd_sc_hd__dfxtp_1
*I *1993:CLK I *D sky130_fd_sc_hd__dfxtp_1
*I *2014:CLK I *D sky130_fd_sc_hd__dfxtp_1
*I *2081:X O *D sky130_fd_sc_hd__clkbuf_8
*CAP
1 *2050:CLK 0.000191645
2 *2022:CLK 0.000174077
3 *2063:CLK 0.000109628
4 *1992:CLK 0
5 *2097:A 2.81266e-05
6 *2051:CLK 8.13085e-05
7 *2006:CLK 0.000345374
8 *1973:CLK 9.98209e-05
9 *1993:CLK 2.81847e-05
10 *2014:CLK 0.000233552
11 *2081:X 0
12 *428:82 0.000499422
13 *428:68 0.000109628
14 *428:66 0.000341545
15 *428:50 0.000109435
16 *428:23 0.000296463
17 *428:19 0.000594344
18 *428:17 0.000230269
19 *428:15 0.000357602
20 *428:4 0.000233552
21 *1659:A0 *2006:CLK 0.000226306
22 *105:10 *428:66 0.000164282
23 *188:10 *2022:CLK 3.71369e-05
24 *188:10 *2050:CLK 6.79006e-05
25 *189:14 *2050:CLK 5.12328e-05
26 *190:8 *2050:CLK 2.93845e-05
27 *190:12 *2050:CLK 1.97329e-05
28 *196:8 *2006:CLK 1.32939e-05
29 *197:14 *2050:CLK 2.72055e-05
30 *197:14 *428:17 9.00646e-05
31 *197:14 *428:19 5.3656e-05
32 *197:14 *428:23 2.89256e-05
33 *197:14 *428:66 0.00012468
34 *197:14 *428:82 5.68527e-05
35 *253:10 *2050:CLK 0
36 *253:10 *428:66 0
37 *253:10 *428:82 0
38 *272:99 *428:17 9.08091e-05
39 *272:99 *428:19 5.19151e-05
40 *272:99 *428:23 8.58116e-05
41 *272:99 *428:66 5.19151e-05
42 *275:119 *2063:CLK 0.000397602
43 *276:53 *1973:CLK 8.82787e-05
44 *276:53 *1993:CLK 2.30292e-05
45 *277:30 *2063:CLK 0.000149834
46 *407:293 *2051:CLK 5.12328e-05
47 *407:293 *2097:A 1.94812e-05
48 *408:247 *2022:CLK 0.000218503
49 *409:180 *428:23 0
*RES
1 *2081:X *428:4 23 
2 *428:4 *2014:CLK 26.9771 
3 *428:4 *428:15 15 
4 *428:15 *428:17 3.66643 
5 *428:17 *428:19 2.25786 
6 *428:19 *428:23 18.3143 
7 *428:23 *1993:CLK 23.6214 
8 *428:23 *1973:CLK 25.5271 
9 *428:19 *2006:CLK 44.3593 
10 *428:17 *428:50 15 
11 *428:50 *2051:CLK 24.5743 
12 *428:50 *2097:A 23.6214 
13 *428:15 *428:66 5.42714 
14 *428:66 *428:68 15 
15 *428:68 *1992:CLK 23 
16 *428:68 *2063:CLK 27.4329 
17 *428:66 *428:82 2.61 
18 *428:82 *2022:CLK 42.4329 
19 *428:82 *2050:CLK 42.5364 
*END

*D_NET *429 0.0118968
*CONN
*I *2004:CLK I *D sky130_fd_sc_hd__dfxtp_1
*I *2012:CLK I *D sky130_fd_sc_hd__dfxtp_1
*I *2039:CLK I *D sky130_fd_sc_hd__dfxtp_1
*I *2003:CLK I *D sky130_fd_sc_hd__dfxtp_1
*I *2098:A I *D sky130_fd_sc_hd__bufinv_16
*I *2011:CLK I *D sky130_fd_sc_hd__dfxtp_1
*I *1991:CLK I *D sky130_fd_sc_hd__dfxtp_1
*I *2049:CLK I *D sky130_fd_sc_hd__dfxtp_1
*I *2041:CLK I *D sky130_fd_sc_hd__dfxtp_1
*I *1970:CLK I *D sky130_fd_sc_hd__dfxtp_1
*I *2082:X O *D sky130_fd_sc_hd__clkbuf_8
*CAP
1 *2004:CLK 0
2 *2012:CLK 0
3 *2039:CLK 5.90294e-05
4 *2003:CLK 0.00022804
5 *2098:A 0.000107483
6 *2011:CLK 0.000178268
7 *1991:CLK 0
8 *2049:CLK 0
9 *2041:CLK 0.00015195
10 *1970:CLK 0.000248693
11 *2082:X 0.000399897
12 *429:121 0.000235585
13 *429:101 0.000133982
14 *429:99 0.000682363
15 *429:84 0.000690624
16 *429:73 0.000319064
17 *429:59 0.000276237
18 *429:46 0.000853226
19 *429:31 0.00126626
20 *429:25 0.000715592
21 *429:12 0.000309019
22 *429:10 0.000581044
23 *429:46 *456:22 7.75329e-06
24 *429:46 *456:35 0.000192859
25 *1642:A0 *1970:CLK 6.48049e-05
26 *1642:A0 *429:12 0.00015954
27 *1642:A0 *429:73 5.33597e-05
28 *1642:A1 *429:10 3.7122e-06
29 *1643:A1 *2003:CLK 0.000402806
30 *1643:A1 *429:73 0.000117765
31 *1643:A1 *429:84 7.90568e-05
32 *1856:S *429:59 6.6869e-05
33 *1865:A0 *1970:CLK 0.000140949
34 *1891:S *429:46 9.27917e-05
35 *2041:D *2041:CLK 4.9054e-06
36 *2041:D *429:31 4.57742e-05
37 *2049:D *429:59 0.000225995
38 *116:16 *429:99 0.000373944
39 *116:16 *429:101 4.22383e-05
40 *116:16 *429:121 2.28308e-05
41 *128:10 *429:46 1.01436e-05
42 *144:10 *429:59 0
43 *181:14 *1970:CLK 9.39159e-05
44 *181:14 *429:12 8.26569e-05
45 *181:14 *429:73 0.000149444
46 *181:14 *429:84 7.03869e-05
47 *183:8 *2003:CLK 7.24484e-05
48 *269:26 *1970:CLK 0.00022296
49 *269:26 *429:46 0
50 *275:44 *429:59 2.71291e-05
51 *275:57 *429:59 7.07238e-05
52 *276:35 *429:99 4.75206e-05
53 *276:39 *2039:CLK 1.59094e-05
54 *276:39 *429:99 0.0001042
55 *276:39 *429:101 6.88885e-05
56 *276:53 *2039:CLK 4.56447e-05
57 *276:117 *429:84 1.02387e-05
58 *276:117 *429:99 0.000136718
59 *276:117 *429:121 0
60 *348:8 *429:46 0
61 *356:6 *429:59 5.12328e-05
62 *356:14 *429:46 2.99716e-05
63 *356:27 *429:59 7.19269e-05
64 *380:27 *2041:CLK 7.67016e-06
65 *388:10 *429:46 0
66 *407:449 *429:10 5.03346e-05
67 *407:463 *2041:CLK 2.30292e-05
68 *408:207 *429:46 0.000506685
69 *408:216 *429:121 0
70 *408:342 *429:46 0
71 *409:117 *2003:CLK 0.000187129
72 *416:194 *429:10 0.000205566
*RES
1 *2082:X *429:10 44.3593 
2 *429:10 *429:12 2.25786 
3 *429:12 *1970:CLK 45.0429 
4 *429:12 *429:25 15 
5 *429:25 *429:31 7.33286 
6 *429:31 *2041:CLK 25.4236 
7 *429:31 *429:46 43.5264 
8 *429:46 *2049:CLK 23 
9 *429:46 *429:59 36.5664 
10 *429:59 *1991:CLK 23 
11 *429:25 *2011:CLK 26.0036 
12 *429:10 *429:73 4.01857 
13 *429:73 *2098:A 39.5743 
14 *429:73 *429:84 2.61 
15 *429:84 *2003:CLK 45.2914 
16 *429:84 *429:99 25.2121 
17 *429:99 *429:101 2.05071 
18 *429:101 *2039:CLK 24.0979 
19 *429:101 *2012:CLK 23 
20 *429:99 *429:121 33.8114 
21 *429:121 *2004:CLK 23 
*END

*D_NET *430 0.00999412
*CONN
*I *2099:A I *D sky130_fd_sc_hd__clkinv_4
*I *2061:CLK I *D sky130_fd_sc_hd__dfxtp_1
*I *2037:CLK I *D sky130_fd_sc_hd__dfxtp_1
*I *2036:CLK I *D sky130_fd_sc_hd__dfxtp_1
*I *2044:CLK I *D sky130_fd_sc_hd__dfxtp_1
*I *1986:CLK I *D sky130_fd_sc_hd__dfxtp_1
*I *2019:CLK I *D sky130_fd_sc_hd__dfxtp_1
*I *2060:CLK I *D sky130_fd_sc_hd__dfxtp_1
*I *2083:X O *D sky130_fd_sc_hd__clkbuf_8
*CAP
1 *2099:A 0.000165147
2 *2061:CLK 0
3 *2037:CLK 0
4 *2036:CLK 0.000220188
5 *2044:CLK 0
6 *1986:CLK 0.000113838
7 *2019:CLK 0
8 *2060:CLK 0.000423786
9 *2083:X 0
10 *430:75 0.000152329
11 *430:67 0.000848268
12 *430:32 0.000182694
13 *430:16 0.000454542
14 *430:14 0.00082577
15 *430:8 0.00114452
16 *430:6 0.000894116
17 *430:4 0.000165147
18 *2060:CLK *1824:A1 4.67488e-05
19 *430:14 *1824:A1 0.000283197
20 *430:16 *1824:A1 2.02872e-05
21 *1722:S *430:8 0.000249909
22 *1722:S *430:67 0.000130433
23 *1851:A1 *430:14 2.70366e-05
24 *2019:D *430:14 1.64354e-05
25 *2036:D *2036:CLK 0.000185129
26 *2060:D *2060:CLK 0.000102732
27 *2061:D *430:67 0.000223381
28 *123:10 *430:14 0
29 *124:8 *430:67 0.000240426
30 *131:10 *430:8 0
31 *131:10 *430:14 0
32 *132:8 *430:75 3.62219e-05
33 *139:10 *430:14 0
34 *139:10 *430:32 0.000166513
35 *237:14 *430:14 0
36 *274:10 *430:75 7.76364e-06
37 *274:20 *430:75 1.19692e-05
38 *274:127 *430:67 6.51031e-05
39 *275:30 *430:14 0
40 *276:16 *430:75 6.25829e-05
41 *276:22 *430:75 6.17437e-06
42 *276:143 *430:75 2.64616e-05
43 *277:92 *430:8 0.000212723
44 *277:92 *430:14 0.000345519
45 *277:92 *430:67 0.000175356
46 *277:100 *1986:CLK 0.000222113
47 *277:100 *430:32 0.000182863
48 *278:88 *430:75 0.000191148
49 *336:10 *430:67 2.64616e-05
50 *343:27 *2060:CLK 1.59094e-05
51 *343:27 *430:14 0.000263579
52 *343:27 *430:16 1.59094e-05
53 *344:8 *430:67 2.81066e-05
54 *351:10 *430:14 1.38338e-05
55 *359:10 *430:8 0
56 *407:423 *430:75 1.59094e-05
57 *407:437 *430:67 6.33536e-05
58 *408:355 *430:14 0.000271382
59 *409:98 *430:67 0.000451094
*RES
1 *2083:X *430:4 23 
2 *430:4 *430:6 15 
3 *430:6 *430:8 5.77929 
4 *430:8 *430:14 33.8914 
5 *430:14 *430:16 0.621429 
6 *430:16 *2060:CLK 30.7679 
7 *430:16 *2019:CLK 23 
8 *430:14 *430:32 17.61 
9 *430:32 *1986:CLK 40.9621 
10 *430:32 *2044:CLK 38 
11 *430:8 *2036:CLK 41.9771 
12 *430:6 *430:67 31.6336 
13 *430:67 *430:75 33.2314 
14 *430:75 *2037:CLK 23 
15 *430:67 *2061:CLK 23 
16 *430:4 *2099:A 25.5479 
*END

*D_NET *431 0.0104761
*CONN
*I *1995:CLK I *D sky130_fd_sc_hd__dfrtp_4
*I *2045:CLK I *D sky130_fd_sc_hd__dfxtp_1
*I *2020:CLK I *D sky130_fd_sc_hd__dfxtp_1
*I *2100:A I *D sky130_fd_sc_hd__clkinv_4
*I *1894:CLK I *D sky130_fd_sc_hd__dfxtp_1
*I *2047:CLK I *D sky130_fd_sc_hd__dfxtp_1
*I *1989:CLK I *D sky130_fd_sc_hd__dfxtp_1
*I *1971:CLK I *D sky130_fd_sc_hd__dfxtp_1
*I *2084:X O *D sky130_fd_sc_hd__clkbuf_8
*CAP
1 *1995:CLK 0.000332282
2 *2045:CLK 0.000505599
3 *2020:CLK 0
4 *2100:A 2.34823e-05
5 *1894:CLK 0
6 *2047:CLK 4.44017e-05
7 *1989:CLK 0
8 *1971:CLK 2.64638e-05
9 *2084:X 0
10 *431:70 0.000943347
11 *431:61 0.000108008
12 *431:34 0.000302768
13 *431:23 0.00056324
14 *431:12 0.000873607
15 *431:8 0.000724791
16 *431:6 0.000398157
17 *431:4 0.000236575
18 *1995:CLK *432:98 0
19 *2045:CLK *452:54 0
20 *431:6 *452:46 0.000344002
21 *431:8 *452:46 0.000109566
22 *431:12 *1834:A0 0.000267161
23 *431:12 *452:68 0.000257636
24 *431:23 *454:102 0
25 *431:34 *454:102 0
26 *431:70 *452:46 0.00025304
27 *1702:B *1995:CLK 0.000139647
28 *1825:A0 *2045:CLK 6.7177e-06
29 *1825:A0 *431:70 0.000185428
30 *1834:A1 *431:12 0.000165918
31 *1872:A1 *431:23 0.000219882
32 *1872:A1 *431:34 0.000177852
33 *1971:D *431:12 1.64354e-05
34 *2045:D *2045:CLK 7.10068e-06
35 *2085:A *431:6 0.000349818
36 *2085:A *431:70 0.00048285
37 *84:10 *431:23 4.6318e-06
38 *140:8 *2045:CLK 9.92573e-05
39 *142:10 *431:34 0
40 *227:8 *1995:CLK 3.14377e-05
41 *228:8 *1995:CLK 3.70094e-05
42 *239:10 *431:61 0.000246748
43 *245:10 *431:61 2.64616e-05
44 *259:12 *431:23 0
45 *269:71 *1971:CLK 6.17437e-06
46 *272:23 *431:70 1.56762e-05
47 *272:25 *2045:CLK 0.000279489
48 *273:27 *431:8 2.18409e-05
49 *273:27 *431:12 2.32101e-05
50 *273:40 *1971:CLK 2.32004e-05
51 *273:40 *431:12 0.00100715
52 *275:16 *1995:CLK 0
53 *275:16 *2045:CLK 0
54 *336:10 *2045:CLK 1.27253e-05
55 *338:10 *2047:CLK 6.17437e-06
56 *338:10 *431:34 0.000163343
57 *384:10 *431:12 7.45491e-05
58 *408:134 *431:61 5.50049e-05
59 *411:33 *1995:CLK 0
60 *412:14 *1995:CLK 1.5769e-05
61 *412:18 *1995:CLK 1.59094e-05
62 *416:182 *431:61 2.55642e-05
63 *416:184 *431:61 0.000218962
*RES
1 *2084:X *431:4 23 
2 *431:4 *431:6 4.43286 
3 *431:6 *431:8 3.00357 
4 *431:8 *431:12 15.8879 
5 *431:12 *1971:CLK 23.6214 
6 *431:12 *431:23 20.7793 
7 *431:23 *1989:CLK 38 
8 *431:23 *431:34 20.4271 
9 *431:34 *2047:CLK 23.6214 
10 *431:34 *1894:CLK 23 
11 *431:8 *2100:A 23.4971 
12 *431:6 *431:61 33.9357 
13 *431:61 *2020:CLK 23 
14 *431:4 *431:70 20.3857 
15 *431:70 *2045:CLK 48.6679 
16 *431:70 *1995:CLK 44.1729 
*END

*D_NET *432 0.00982433
*CONN
*I *1994:CLK I *D sky130_fd_sc_hd__dfrtp_4
*I *2000:CLK I *D sky130_fd_sc_hd__dfrtp_1
*I *1996:CLK I *D sky130_fd_sc_hd__dfrtp_4
*I *1920:CLK I *D sky130_fd_sc_hd__dfrtp_1
*I *1927:CLK I *D sky130_fd_sc_hd__dfrtp_1
*I *1922:CLK I *D sky130_fd_sc_hd__dfrtp_1
*I *1926:CLK I *D sky130_fd_sc_hd__dfrtp_1
*I *1921:CLK I *D sky130_fd_sc_hd__dfrtp_1
*I *1925:CLK I *D sky130_fd_sc_hd__dfrtp_1
*I *2101:A I *D sky130_fd_sc_hd__clkinv_2
*I *1987:CLK I *D sky130_fd_sc_hd__dfxtp_1
*I *2085:X O *D sky130_fd_sc_hd__clkbuf_8
*CAP
1 *1994:CLK 8.05224e-05
2 *2000:CLK 0
3 *1996:CLK 0
4 *1920:CLK 0
5 *1927:CLK 0.000289115
6 *1922:CLK 0
7 *1926:CLK 0.000145761
8 *1921:CLK 2.92563e-05
9 *1925:CLK 0
10 *2101:A 0
11 *1987:CLK 0.00050978
12 *2085:X 0
13 *432:113 0.0004867
14 *432:98 0.000961703
15 *432:67 0.000619226
16 *432:56 0.000616351
17 *432:45 0.000675879
18 *432:41 0.000933194
19 *432:32 0.000736812
20 *432:25 0.000309762
21 *432:10 0.000741512
22 *432:8 0.000743735
23 *432:4 0.000117523
24 *1926:CLK *1926:D 2.93747e-05
25 *1926:CLK *1996:RESET_B 0.000198196
26 *1927:CLK *1927:D 2.93747e-05
27 *1927:CLK *438:117 5.29672e-05
28 *1927:CLK *460:14 0
29 *1927:CLK *470:10 2.66127e-05
30 *432:41 *1920:D 5.50049e-05
31 *432:41 *1925:D 7.88828e-05
32 *432:41 *1925:RESET_B 0.000240843
33 *432:45 *463:10 0
34 *432:56 *460:14 0
35 *432:56 *469:10 5.80963e-05
36 *432:67 *460:14 0
37 *432:98 *497:10 0
38 *432:98 *498:10 0
39 *432:113 *1996:D 5.87834e-05
40 *432:113 *450:226 1.69668e-05
41 *432:113 *503:10 7.90464e-05
42 *1704:A *432:113 0.000380352
43 *1704:B *432:113 0.000216721
44 *1825:A0 *1987:CLK 0
45 *1825:A0 *432:10 0
46 *1870:A1 *1987:CLK 0
47 *1987:D *1987:CLK 1.64354e-05
48 *1987:D *432:10 0
49 *1995:CLK *432:98 0
50 *100:8 *1994:CLK 5.83407e-05
51 *100:8 *432:8 9.8971e-06
52 *201:10 *432:45 0
53 *225:23 *432:98 0
54 *227:8 *432:98 0
55 *228:8 *432:113 0.000169674
56 *411:14 *432:45 0
57 *413:10 *432:113 3.87007e-05
58 *413:23 *432:113 1.32314e-05
59 *413:72 *432:113 0
*RES
1 *2085:X *432:4 23 
2 *432:4 *432:8 15.6214 
3 *432:8 *432:10 3.66643 
4 *432:10 *1987:CLK 46.6171 
5 *432:10 *432:25 15 
6 *432:25 *2101:A 23 
7 *432:25 *432:32 5.38571 
8 *432:32 *1925:CLK 23 
9 *432:32 *432:41 10.1707 
10 *432:41 *432:45 23.5964 
11 *432:45 *1921:CLK 38.6214 
12 *432:45 *432:56 2.96214 
13 *432:56 *1926:CLK 41.9564 
14 *432:56 *432:67 5.42714 
15 *432:67 *1922:CLK 38 
16 *432:67 *1927:CLK 43.7793 
17 *432:41 *1920:CLK 23 
18 *432:8 *432:98 23.2443 
19 *432:98 *1996:CLK 23 
20 *432:98 *432:113 41.8693 
21 *432:113 *2000:CLK 23 
22 *432:4 *1994:CLK 25.0714 
*END

*D_NET *433 0.0127811
*CONN
*I *1937:CLK I *D sky130_fd_sc_hd__dfxtp_1
*I *2059:CLK I *D sky130_fd_sc_hd__dfxtp_1
*I *1896:CLK I *D sky130_fd_sc_hd__dfxtp_1
*I *1932:CLK I *D sky130_fd_sc_hd__dfxtp_1
*I *1964:CLK I *D sky130_fd_sc_hd__dfxtp_1
*I *1956:CLK I *D sky130_fd_sc_hd__dfxtp_1
*I *1980:CLK I *D sky130_fd_sc_hd__dfxtp_1
*I *2054:CLK I *D sky130_fd_sc_hd__dfxtp_1
*I *1983:CLK I *D sky130_fd_sc_hd__dfxtp_1
*I *2066:CLK I *D sky130_fd_sc_hd__dfxtp_1
*I *1899:CLK I *D sky130_fd_sc_hd__dfxtp_1
*I *1967:CLK I *D sky130_fd_sc_hd__dfxtp_1
*I *1959:CLK I *D sky130_fd_sc_hd__dfxtp_1
*I *2086:X O *D sky130_fd_sc_hd__clkbuf_8
*CAP
1 *1937:CLK 0.000190906
2 *2059:CLK 7.7526e-05
3 *1896:CLK 8.61401e-05
4 *1932:CLK 2.50267e-05
5 *1964:CLK 0.000160361
6 *1956:CLK 4.43383e-05
7 *1980:CLK 0
8 *2054:CLK 7.87429e-05
9 *1983:CLK 0
10 *2066:CLK 0
11 *1899:CLK 2.34823e-05
12 *1967:CLK 0.000225036
13 *1959:CLK 0
14 *2086:X 2.95011e-05
15 *433:124 0.000163666
16 *433:122 0.000420704
17 *433:93 0.00171089
18 *433:87 0.00155469
19 *433:80 3.80024e-05
20 *433:76 0.00035114
21 *433:62 7.87429e-05
22 *433:55 0.00027418
23 *433:22 0.000723676
24 *433:16 0.00123345
25 *433:14 0.00109034
26 *433:10 0.000433126
27 *433:8 0.000464616
28 *433:8 *453:131 5.50106e-05
29 *433:10 *453:90 0
30 *433:10 *453:116 0
31 *433:14 *453:90 0
32 *433:55 *453:90 8.33262e-05
33 *1733:B *2059:CLK 9.67842e-05
34 *1819:S *433:10 1.44813e-05
35 *1819:S *433:76 6.7177e-06
36 *1819:S *433:122 7.98259e-05
37 *1899:D *433:16 0.000233156
38 *1932:D *1932:CLK 6.17437e-06
39 *1956:D *433:93 0.000104017
40 *1980:D *1932:CLK 1.03836e-05
41 *1980:D *433:80 5.50106e-05
42 *1980:D *433:93 1.42931e-05
43 *16:27 *2054:CLK 0.000103647
44 *45:10 *433:10 7.03766e-05
45 *45:10 *433:76 9.04083e-05
46 *72:8 *1967:CLK 0
47 *72:8 *433:22 0
48 *77:8 *1956:CLK 0
49 *77:8 *1964:CLK 0
50 *247:8 *433:122 0.000116314
51 *262:92 *433:10 0.000622627
52 *262:92 *433:14 0.000161748
53 *262:115 *433:10 1.00084e-05
54 *262:115 *433:76 0.00020247
55 *262:115 *433:122 0.00014129
56 *270:47 *1937:CLK 0.000149011
57 *270:47 *433:122 2.05041e-05
58 *393:10 *433:93 0.000137651
59 *404:8 *433:16 0.000100061
60 *408:469 *1937:CLK 0.000424851
61 *408:469 *433:122 0.0001927
*RES
1 *2086:X *433:8 38.6214 
2 *433:8 *433:10 8.59643 
3 *433:10 *433:14 17.2579 
4 *433:14 *433:16 12.0557 
5 *433:16 *433:22 23.5964 
6 *433:22 *1959:CLK 38 
7 *433:22 *1967:CLK 41.9357 
8 *433:16 *1899:CLK 23.4971 
9 *433:14 *433:55 34.8886 
10 *433:55 *2066:CLK 23 
11 *433:10 *433:62 15 
12 *433:62 *1983:CLK 23 
13 *433:62 *2054:CLK 25.0507 
14 *433:8 *433:76 2.96214 
15 *433:76 *433:80 15.6214 
16 *433:80 *1980:CLK 23 
17 *433:80 *433:87 0.497143 
18 *433:87 *433:93 34.0986 
19 *433:93 *1956:CLK 38.8493 
20 *433:93 *1964:CLK 40.5271 
21 *433:87 *1932:CLK 23.6214 
22 *433:76 *433:122 5.77929 
23 *433:122 *433:124 15 
24 *433:124 *1896:CLK 24.0979 
25 *433:124 *2059:CLK 24.5743 
26 *433:122 *1937:CLK 44.4007 
*END

*D_NET *434 0.00707224
*CONN
*I *2056:CLK I *D sky130_fd_sc_hd__dfxtp_1
*I *1934:CLK I *D sky130_fd_sc_hd__dfxtp_1
*I *1953:CLK I *D sky130_fd_sc_hd__dfxtp_1
*I *1943:CLK I *D sky130_fd_sc_hd__dfxtp_1
*I *2102:A I *D sky130_fd_sc_hd__clkinvlp_4
*I *1935:CLK I *D sky130_fd_sc_hd__dfxtp_1
*I *1948:CLK I *D sky130_fd_sc_hd__dfxtp_1
*I *2057:CLK I *D sky130_fd_sc_hd__dfxtp_1
*I *1940:CLK I *D sky130_fd_sc_hd__dfxtp_1
*I *2087:X O *D sky130_fd_sc_hd__clkbuf_8
*CAP
1 *2056:CLK 0.000105009
2 *1934:CLK 4.82547e-05
3 *1953:CLK 0.000115655
4 *1943:CLK 0.000252298
5 *2102:A 0
6 *1935:CLK 4.47995e-05
7 *1948:CLK 0
8 *2057:CLK 0.00027889
9 *1940:CLK 0
10 *2087:X 0
11 *434:74 0.000163909
12 *434:72 0.000460512
13 *434:59 0.000662349
14 *434:50 0.000216831
15 *434:36 4.47995e-05
16 *434:23 0.00045012
17 *434:12 0.000384386
18 *434:4 0.000375438
19 *1638:A *1943:CLK 9.84794e-05
20 *1734:S1 *434:12 8.26569e-05
21 *1770:S *2057:CLK 0
22 *1770:S *434:12 0.00040943
23 *1770:S *434:23 0
24 *16:33 *2057:CLK 0.000171888
25 *177:10 *1935:CLK 1.59094e-05
26 *177:18 *1943:CLK 5.50106e-05
27 *178:8 *1943:CLK 1.21972e-05
28 *197:14 *1943:CLK 0.000218952
29 *197:14 *2056:CLK 0.000184174
30 *197:14 *434:72 0.000650689
31 *231:55 *1934:CLK 3.34247e-05
32 *231:55 *1953:CLK 6.343e-05
33 *249:10 *1943:CLK 7.33449e-05
34 *249:10 *434:72 5.26204e-05
35 *253:10 *2057:CLK 0.000219882
36 *253:10 *434:12 0
37 *253:10 *434:23 0.000216721
38 *263:44 *434:23 0.000185428
39 *264:30 *434:12 9.67842e-05
40 *264:30 *434:50 0.000354122
41 *264:30 *434:59 9.58714e-05
42 *267:32 *434:23 0.000100733
43 *408:402 *434:12 2.60152e-05
44 *408:421 *434:12 5.12254e-05
45 *409:166 *2056:CLK 0
46 *409:166 *434:72 0
47 *409:172 *1943:CLK 0
48 *409:172 *434:72 0
*RES
1 *2087:X *434:4 23 
2 *434:4 *434:12 36.525 
3 *434:12 *1940:CLK 23 
4 *434:12 *434:23 20.0129 
5 *434:23 *2057:CLK 44.4421 
6 *434:23 *434:36 15 
7 *434:36 *1948:CLK 23 
8 *434:36 *1935:CLK 23.6214 
9 *434:4 *434:50 3.95643 
10 *434:50 *2102:A 23 
11 *434:50 *434:59 16.0979 
12 *434:59 *1943:CLK 43.9657 
13 *434:59 *434:72 8.94857 
14 *434:72 *434:74 15 
15 *434:74 *1953:CLK 25.0507 
16 *434:74 *1934:CLK 24.0979 
17 *434:72 *2056:CLK 40.61 
*END

*D_NET *435 0.00076881
*CONN
*I *1681:B1 I *D sky130_fd_sc_hd__o31a_1
*I *2104:X O *D sky130_fd_sc_hd__clkbuf_1
*CAP
1 *1681:B1 0
2 *2104:X 0.000268718
3 *435:10 0.000268718
4 *435:10 *1678:A1 1.59094e-05
5 *435:10 *462:29 0
6 *435:10 *485:8 0.000163352
7 *214:8 *435:10 0
8 *215:8 *435:10 5.21127e-05
*RES
1 *2104:X *435:10 42.3086 
2 *435:10 *1681:B1 38 
*END

*D_NET *436 0.0287277
*CONN
*I *1802:A1 I *D sky130_fd_sc_hd__mux2_1
*I *1821:A1 I *D sky130_fd_sc_hd__mux2_1
*I *1766:A1 I *D sky130_fd_sc_hd__mux2_1
*I *1784:A1 I *D sky130_fd_sc_hd__mux2_1
*I *1775:A0 I *D sky130_fd_sc_hd__mux2_1
*I *1876:A0 I *D sky130_fd_sc_hd__mux2_1
*I *1858:A0 I *D sky130_fd_sc_hd__mux2_1
*I *1831:A1 I *D sky130_fd_sc_hd__mux2_1
*I *1867:A1 I *D sky130_fd_sc_hd__mux2_1
*I *1812:A0 I *D sky130_fd_sc_hd__mux2_1
*I *1849:A1 I *D sky130_fd_sc_hd__mux2_1
*I *1840:A0 I *D sky130_fd_sc_hd__mux2_1
*I *1893:A1 I *D sky130_fd_sc_hd__mux2_1
*I *1884:A0 I *D sky130_fd_sc_hd__mux2_1
*I *1757:A0 I *D sky130_fd_sc_hd__mux2_1
*I *1793:A0 I *D sky130_fd_sc_hd__mux2_1
*I *2105:X O *D sky130_fd_sc_hd__clkbuf_4
*CAP
1 *1802:A1 0.000270888
2 *1821:A1 0
3 *1766:A1 0
4 *1784:A1 0
5 *1775:A0 0.000103715
6 *1876:A0 3.75814e-05
7 *1858:A0 0
8 *1831:A1 0.000212602
9 *1867:A1 0
10 *1812:A0 0
11 *1849:A1 0.000161292
12 *1840:A0 0.000253917
13 *1893:A1 0.000121138
14 *1884:A0 0
15 *1757:A0 0
16 *1793:A0 0.000125693
17 *2105:X 0.000498699
18 *436:184 0.000773388
19 *436:133 0.000275242
20 *436:129 0.0010918
21 *436:104 0.00132312
22 *436:100 0.000472015
23 *436:94 0.000616739
24 *436:92 0.000396525
25 *436:79 0.000704272
26 *436:77 0.000247672
27 *436:75 0.00125604
28 *436:69 0.0017241
29 *436:58 0.000574059
30 *436:52 0.00103067
31 *436:48 0.000926518
32 *436:36 0.00143705
33 *436:25 0.000886322
34 *436:21 0.000993967
35 *436:10 0.00101926
36 *436:36 *457:18 7.03766e-05
37 *436:48 *457:18 8.11411e-05
38 *436:48 *457:29 0
39 *436:48 *457:31 0
40 *436:58 *457:31 9.53554e-05
41 *1658:A3 *436:133 5.3304e-05
42 *1770:S *436:75 0.000153222
43 *1775:A1 *436:69 0
44 *1775:S *436:69 2.5415e-05
45 *1775:S *436:75 0.00010247
46 *1779:A0 *436:75 0
47 *1812:A1 *436:133 9.67842e-05
48 *1831:A0 *1831:A1 0.000399297
49 *1831:S *1831:A1 2.93845e-05
50 *1840:S *1840:A0 5.56279e-05
51 *1849:S *1849:A1 5.67058e-05
52 *1858:A1 *1831:A1 5.50106e-05
53 *1862:S *1840:A0 5.04049e-05
54 *1884:A1 *436:69 4.9662e-05
55 *1945:D *436:184 8.79002e-05
56 *42:10 *436:21 0
57 *42:10 *436:25 0.000173452
58 *61:8 *436:75 0.000736977
59 *74:8 *436:10 1.14452e-05
60 *74:8 *436:21 0.000102638
61 *82:8 *1802:A1 0
62 *114:10 *1840:A0 4.84129e-06
63 *138:8 *436:129 0.000109343
64 *145:8 *436:75 0.000116314
65 *153:8 *436:48 0.000110922
66 *172:6 *436:48 0.000137625
67 *231:55 *436:69 0.000130341
68 *231:59 *436:58 5.3304e-05
69 *231:59 *436:69 8.43466e-05
70 *231:80 *436:52 0.000114092
71 *231:80 *436:58 0.000463729
72 *248:8 *436:75 5.21127e-05
73 *253:10 *436:75 0
74 *262:130 *436:36 0.000100061
75 *263:55 *436:69 0
76 *265:69 *436:184 4.96717e-05
77 *266:71 *436:10 0
78 *269:107 *436:129 6.7177e-06
79 *270:47 *436:48 0.000122386
80 *270:66 *436:48 0.000498886
81 *275:131 *1831:A1 2.93845e-05
82 *275:131 *436:92 0.000850101
83 *276:61 *436:92 3.56537e-05
84 *276:61 *436:100 0.00043937
85 *276:67 *436:100 4.18605e-05
86 *276:67 *436:104 9.84851e-05
87 *276:86 *1840:A0 6.22448e-06
88 *276:86 *436:129 0.000133076
89 *277:38 *436:75 0.000135271
90 *277:60 *436:75 0.000294776
91 *278:41 *436:92 0
92 *278:47 *436:92 0
93 *294:12 *1802:A1 2.93845e-05
94 *294:27 *1802:A1 0
95 *294:27 *436:21 0
96 *294:27 *436:25 0.000153145
97 *302:12 *436:21 0
98 *310:8 *436:69 2.22079e-05
99 *318:10 *436:184 1.39431e-05
100 *321:29 *436:75 9.63815e-05
101 *326:12 *436:52 0.000104869
102 *326:12 *436:58 0.00019747
103 *333:10 *436:48 0
104 *334:8 *436:69 0
105 *334:25 *436:69 0.000164364
106 *342:12 *436:92 0.000274543
107 *350:14 *1893:A1 5.50049e-05
108 *350:14 *436:92 9.03157e-05
109 *366:12 *436:129 5.81956e-05
110 *366:25 *436:129 1.14096e-05
111 *374:33 *1840:A0 3.68205e-05
112 *382:12 *1849:A1 0.000315852
113 *390:10 *436:129 0.000167443
114 *398:12 *436:21 0
115 *398:25 *436:48 0.000163361
116 *407:311 *436:129 0.000119855
117 *407:325 *1840:A0 0
118 *407:355 *436:129 0
119 *407:373 *436:75 0.000576245
120 *407:386 *436:75 0.001047
121 *408:402 *436:69 0
122 *409:237 *1775:A0 0.000140259
123 *416:14 *436:75 2.5415e-05
124 *416:39 *1876:A0 4.34745e-05
125 *416:39 *436:79 9.5877e-05
126 *420:16 *436:10 9.01041e-05
127 *420:22 *436:10 5.12328e-05
128 *420:22 *436:21 0
129 *420:35 *436:21 0
130 *420:131 *436:36 4.16764e-05
131 *420:131 *436:48 3.21926e-05
132 *421:97 *436:184 0.000140259
133 *427:94 *436:100 1.32314e-05
134 *427:94 *436:104 0.00011641
*RES
1 *2105:X *436:10 45.8714 
2 *436:10 *1793:A0 39.5743 
3 *436:10 *436:21 7.54 
4 *436:21 *436:25 22.7679 
5 *436:25 *1757:A0 23 
6 *436:25 *436:36 25.15 
7 *436:36 *436:48 35.8593 
8 *436:48 *436:52 16.5536 
9 *436:52 *436:58 22.2293 
10 *436:58 *1884:A0 23 
11 *436:58 *436:69 23.9279 
12 *436:69 *436:75 35.7736 
13 *436:75 *436:77 15 
14 *436:77 *436:79 2.52714 
15 *436:79 *1893:A1 24.5743 
16 *436:79 *436:92 41.4136 
17 *436:92 *436:94 0.497143 
18 *436:94 *436:100 8.28571 
19 *436:100 *436:104 17.5271 
20 *436:104 *1840:A0 43.0129 
21 *436:104 *436:129 45.6393 
22 *436:129 *436:133 17.0507 
23 *436:133 *1849:A1 27.4536 
24 *436:133 *1812:A0 23 
25 *436:100 *1867:A1 23 
26 *436:94 *1831:A1 28.8621 
27 *436:92 *1858:A0 23 
28 *436:77 *1876:A0 23.6214 
29 *436:69 *1775:A0 39.5743 
30 *436:52 *436:184 27.5321 
31 *436:184 *1784:A1 23 
32 *436:48 *1766:A1 23 
33 *436:36 *1821:A1 38 
34 *436:21 *1802:A1 42.64 
*END

*D_NET *437 0.00128593
*CONN
*I *1699:B1_N I *D sky130_fd_sc_hd__a21boi_2
*I *2106:X O *D sky130_fd_sc_hd__clkbuf_1
*CAP
1 *1699:B1_N 0
2 *2106:X 0.000492467
3 *437:14 0.000492467
4 *437:14 *438:41 5.65594e-05
5 *1673:A *437:14 2.93747e-05
6 *200:10 *437:14 0.000121737
7 *204:23 *437:14 9.33203e-05
*RES
1 *2106:X *437:14 47.1143 
2 *437:14 *1699:B1_N 38 
*END

*D_NET *438 0.0223414
*CONN
*I *1998:RESET_B I *D sky130_fd_sc_hd__dfrtp_2
*I *1997:RESET_B I *D sky130_fd_sc_hd__dfrtp_1
*I *2000:RESET_B I *D sky130_fd_sc_hd__dfrtp_1
*I *1928:RESET_B I *D sky130_fd_sc_hd__dfrtp_1
*I *1923:RESET_B I *D sky130_fd_sc_hd__dfrtp_1
*I *1924:RESET_B I *D sky130_fd_sc_hd__dfrtp_1
*I *1999:RESET_B I *D sky130_fd_sc_hd__dfrtp_1
*I *1929:RESET_B I *D sky130_fd_sc_hd__dfrtp_1
*I *2001:RESET_B I *D sky130_fd_sc_hd__dfrtp_1
*I *2002:RESET_B I *D sky130_fd_sc_hd__dfrtp_1
*I *1927:RESET_B I *D sky130_fd_sc_hd__dfrtp_1
*I *1922:RESET_B I *D sky130_fd_sc_hd__dfrtp_1
*I *1995:RESET_B I *D sky130_fd_sc_hd__dfrtp_4
*I *1996:RESET_B I *D sky130_fd_sc_hd__dfrtp_4
*I *1926:RESET_B I *D sky130_fd_sc_hd__dfrtp_1
*I *1921:RESET_B I *D sky130_fd_sc_hd__dfrtp_1
*I *1994:RESET_B I *D sky130_fd_sc_hd__dfrtp_4
*I *1925:RESET_B I *D sky130_fd_sc_hd__dfrtp_1
*I *1920:RESET_B I *D sky130_fd_sc_hd__dfrtp_1
*I *2107:X O *D sky130_fd_sc_hd__clkbuf_8
*CAP
1 *1998:RESET_B 0.000373072
2 *1997:RESET_B 4.3848e-05
3 *2000:RESET_B 0.000271972
4 *1928:RESET_B 0.000187728
5 *1923:RESET_B 0
6 *1924:RESET_B 0
7 *1999:RESET_B 0.000814337
8 *1929:RESET_B 0.000898235
9 *2001:RESET_B 7.59987e-06
10 *2002:RESET_B 0.000263913
11 *1927:RESET_B 1.41641e-05
12 *1922:RESET_B 6.89298e-05
13 *1995:RESET_B 0.000206682
14 *1996:RESET_B 0.00115846
15 *1926:RESET_B 0.00109926
16 *1921:RESET_B 5.2782e-05
17 *1994:RESET_B 0.00015465
18 *1925:RESET_B 0.00114137
19 *1920:RESET_B 1.26305e-05
20 *2107:X 0.000400821
21 *438:185 0.000509463
22 *438:183 0.000566715
23 *438:166 0.00053994
24 *438:155 0.00071574
25 *438:123 0.000549723
26 *438:117 0.00144925
27 *438:103 0.0011575
28 *438:99 0.000503846
29 *438:87 0.00043972
30 *438:55 0.000587402
31 *438:41 0.000686809
32 *438:12 0.00154187
33 *438:8 0.000462575
34 *1920:RESET_B *463:10 1.19087e-05
35 *1925:RESET_B *1920:D 4.99329e-05
36 *1925:RESET_B *463:10 6.25528e-05
37 *1926:RESET_B *469:10 0.000137039
38 *1927:RESET_B *470:10 2.56078e-05
39 *1928:RESET_B *1903:D 0
40 *1929:RESET_B *459:16 3.04021e-05
41 *1929:RESET_B *460:14 0
42 *1994:RESET_B *459:16 0.000140671
43 *1995:RESET_B *459:16 8.16356e-05
44 *1996:RESET_B *469:10 3.02261e-05
45 *1998:RESET_B *476:14 0
46 *1998:RESET_B *500:10 5.561e-05
47 *1998:RESET_B *501:10 0
48 *1998:RESET_B *505:10 0
49 *1999:RESET_B *1929:D 0.000120847
50 *1999:RESET_B *459:16 0
51 *1999:RESET_B *474:12 0
52 *1999:RESET_B *476:14 0
53 *1999:RESET_B *502:16 0
54 *2000:RESET_B *450:240 0.000147834
55 *2000:RESET_B *500:10 4.6318e-06
56 *2001:RESET_B *447:16 1.12709e-05
57 *2002:RESET_B *447:16 8.7843e-05
58 *2002:RESET_B *476:8 0.00010018
59 *438:12 *463:10 2.38288e-05
60 *438:41 *440:8 0
61 *438:55 *464:8 0.000114083
62 *438:87 *464:8 9.21347e-06
63 *438:103 *470:10 4.5051e-05
64 *438:117 *1927:D 5.50049e-05
65 *438:117 *459:16 0.000144455
66 *438:117 *460:14 0
67 *438:117 *470:10 0.00015804
68 *438:123 *447:16 2.80078e-05
69 *438:155 *466:10 0
70 *438:155 *467:10 0
71 *438:166 *1903:D 0
72 *438:166 *458:34 0
73 *438:166 *466:10 0
74 *438:166 *475:12 0
75 *438:185 *500:10 0.000151909
76 full *438:8 0
77 *1672:A2 *438:87 0.000215791
78 *1672:A2 *438:99 0.000194309
79 *1673:B *438:41 0.000101575
80 *1710:A *1998:RESET_B 0
81 *1710:A *438:185 0
82 *1711:A1 *2000:RESET_B 0
83 *1711:A1 *438:185 0
84 *1926:CLK *1996:RESET_B 0.000198196
85 *1927:CLK *438:117 5.29672e-05
86 *1929:CLK *1999:RESET_B 1.94812e-05
87 *2001:CLK *2002:RESET_B 0.000147834
88 *5:9 *1999:RESET_B 0.000161584
89 *165:29 *1997:RESET_B 0.000178813
90 *165:55 *438:99 5.30518e-05
91 *165:55 *438:155 4.49946e-05
92 *198:10 *438:155 0.000154147
93 *198:12 *438:99 5.24393e-05
94 *198:12 *438:155 0.000167452
95 *199:10 *438:87 0.000268231
96 *199:10 *438:99 0.000130424
97 *199:38 *438:87 0.000141678
98 *200:10 *1926:RESET_B 5.50106e-05
99 *200:10 *438:41 0
100 *200:10 *438:55 0
101 *204:23 *438:41 0.000166522
102 *206:8 *438:155 0
103 *209:10 *438:41 2.60152e-05
104 *209:10 *438:55 1.22906e-05
105 *209:10 *438:87 0
106 *411:14 *1994:RESET_B 0
107 *411:175 *438:185 0
108 *411:179 *1997:RESET_B 5.17905e-05
109 *411:196 *1998:RESET_B 0
110 *411:203 *438:185 0
111 *412:10 *1995:RESET_B 7.0019e-05
112 *412:14 *1995:RESET_B 0.000178813
113 *412:256 *1995:RESET_B 6.6869e-05
114 *412:271 *1921:RESET_B 5.03619e-05
115 *412:271 *1995:RESET_B 7.53384e-06
116 *412:271 *438:41 0.000191148
117 *413:10 *1996:RESET_B 3.39434e-05
118 *413:72 *2000:RESET_B 0
119 *413:76 *2000:RESET_B 0.000141954
120 *423:12 *1998:RESET_B 0
121 *423:14 *1998:RESET_B 0
122 *432:41 *1925:RESET_B 0.000240843
123 *437:14 *438:41 5.65594e-05
*RES
1 *2107:X *438:8 45.54 
2 *438:8 *438:12 16.0979 
3 *438:12 *1920:RESET_B 0.548929 
4 *438:12 *1925:RESET_B 15.9811 
5 *1925:RESET_B *1994:RESET_B 33.6664 
6 *438:12 *438:41 24.6529 
7 *438:41 *1921:RESET_B 16.0254 
8 *438:41 *438:55 18.0036 
9 *438:55 *1926:RESET_B 3.4075 
10 *1926:RESET_B *1996:RESET_B 14.1893 
11 *1996:RESET_B *1995:RESET_B 35.1889 
12 *438:55 *438:87 22.25 
13 *438:87 *1922:RESET_B 16.0461 
14 *438:87 *438:99 3.31429 
15 *438:99 *438:103 16.0979 
16 *438:103 *1927:RESET_B 0.548929 
17 *438:103 *438:117 32.8557 
18 *438:117 *438:123 18.9771 
19 *438:123 *2002:RESET_B 6.26607 
20 *438:123 *2001:RESET_B 0.548929 
21 *438:117 *1929:RESET_B 16.5536 
22 *1929:RESET_B *1999:RESET_B 45.7739 
23 *438:99 *438:155 7.54 
24 *438:155 *1924:RESET_B 15 
25 *438:155 *438:166 6.54571 
26 *438:166 *1923:RESET_B 15 
27 *438:166 *1928:RESET_B 18.6664 
28 *2002:RESET_B *438:183 15 
29 *438:183 *438:185 4.01857 
30 *438:185 *2000:RESET_B 20.4582 
31 *438:185 *1997:RESET_B 16.9782 
32 *438:183 *1998:RESET_B 20.7793 
*END

*D_NET *439 0.000705525
*CONN
*I *2117:A I *D sky130_fd_sc_hd__buf_1
*I *1680:Y O *D sky130_fd_sc_hd__nor3_1
*CAP
1 *2117:A 0
2 *1680:Y 0.000222614
3 *439:10 0.000222614
4 *439:10 *485:8 0.000102778
5 empty *439:10 3.59619e-05
6 *1680:B *439:10 5.50049e-05
7 *15:13 *439:10 6.65516e-05
*RES
1 *1680:Y *439:10 43.6964 
2 *439:10 *2117:A 38 
*END

*D_NET *440 0.000536743
*CONN
*I *2118:A I *D sky130_fd_sc_hd__buf_1
*I *1673:X O *D sky130_fd_sc_hd__and2_1
*CAP
1 *2118:A 0.000140671
2 *1673:X 0.000127701
3 *440:8 0.000268372
4 *2106:A *440:8 0
5 *438:41 *440:8 0
*RES
1 *1673:X *440:8 40.2579 
2 *440:8 *2118:A 40.5271 
*END

*D_NET *441 0.000358429
*CONN
*I *2119:A I *D sky130_fd_sc_hd__buf_1
*I *1912:Q O *D sky130_fd_sc_hd__dfxtp_1
*CAP
1 *2119:A 0
2 *1912:Q 0.000172848
3 *441:10 0.000172848
4 *441:10 *466:10 0
5 rdata[0] *441:10 1.27321e-05
*RES
1 *1912:Q *441:10 40.8793 
2 *441:10 *2119:A 38 
*END

*D_NET *442 0.000830781
*CONN
*I *2120:A I *D sky130_fd_sc_hd__buf_1
*I *1913:Q O *D sky130_fd_sc_hd__dfxtp_1
*CAP
1 *2120:A 8.91322e-05
2 *1913:Q 0.00029004
3 *442:8 0.000379172
4 *2120:A *452:8 7.24365e-05
5 *400:10 *442:8 0
*RES
1 *1913:Q *442:8 43.075 
2 *442:8 *2120:A 40.0507 
*END

*D_NET *443 0.00074759
*CONN
*I *2121:A I *D sky130_fd_sc_hd__buf_1
*I *1914:Q O *D sky130_fd_sc_hd__dfxtp_1
*CAP
1 *2121:A 0
2 *1914:Q 0.000215866
3 *443:8 0.000215866
4 *443:8 *445:16 0.000315857
*RES
1 *1914:Q *443:8 28.2821 
2 *443:8 *2121:A 23 
*END

*D_NET *444 0.00128693
*CONN
*I *2122:A I *D sky130_fd_sc_hd__buf_1
*I *1915:Q O *D sky130_fd_sc_hd__dfxtp_1
*CAP
1 *2122:A 0
2 *1915:Q 0.000526017
3 *444:10 0.000526017
4 *444:10 *2126:A 0
5 *1918:CLK *444:10 0.000234898
*RES
1 *1915:Q *444:10 46.5964 
2 *444:10 *2122:A 38 
*END

*D_NET *445 0.00285708
*CONN
*I *2123:A I *D sky130_fd_sc_hd__buf_1
*I *1916:Q O *D sky130_fd_sc_hd__dfxtp_1
*CAP
1 *2123:A 0
2 *1916:Q 0.000492073
3 *445:16 0.000701379
4 *445:10 0.00119345
5 *445:16 *452:8 5.41385e-05
6 *29:18 *445:10 0
7 *266:31 *445:10 0.00010018
8 *443:8 *445:16 0.000315857
*RES
1 *1916:Q *445:10 46.6379 
2 *445:10 *445:16 28.9821 
3 *445:16 *2123:A 23 
*END

*D_NET *446 0.0213685
*CONN
*I *1911:RESET_B I *D sky130_fd_sc_hd__dfrtp_1
*I *1906:RESET_B I *D sky130_fd_sc_hd__dfrtp_1
*I *2035:RESET_B I *D sky130_fd_sc_hd__dfrtp_1
*I *2031:RESET_B I *D sky130_fd_sc_hd__dfrtp_4
*I *2029:RESET_B I *D sky130_fd_sc_hd__dfrtp_4
*I *2028:RESET_B I *D sky130_fd_sc_hd__dfrtp_4
*I *2030:RESET_B I *D sky130_fd_sc_hd__dfrtp_4
*I *2034:RESET_B I *D sky130_fd_sc_hd__dfrtp_1
*I *2027:RESET_B I *D sky130_fd_sc_hd__dfrtp_4
*I *2032:RESET_B I *D sky130_fd_sc_hd__dfrtp_1
*I *1907:RESET_B I *D sky130_fd_sc_hd__dfrtp_1
*I *1910:RESET_B I *D sky130_fd_sc_hd__dfrtp_1
*I *2033:RESET_B I *D sky130_fd_sc_hd__dfrtp_1
*I *1902:RESET_B I *D sky130_fd_sc_hd__dfrtp_1
*I *1905:RESET_B I *D sky130_fd_sc_hd__dfrtp_1
*I *1904:RESET_B I *D sky130_fd_sc_hd__dfrtp_1
*I *1909:RESET_B I *D sky130_fd_sc_hd__dfrtp_1
*I *1903:RESET_B I *D sky130_fd_sc_hd__dfrtp_1
*I *1908:RESET_B I *D sky130_fd_sc_hd__dfrtp_1
*I *2108:X O *D sky130_fd_sc_hd__clkbuf_8
*CAP
1 *1911:RESET_B 8.49022e-05
2 *1906:RESET_B 0.000409663
3 *2035:RESET_B 2.7221e-05
4 *2031:RESET_B 0.000178352
5 *2029:RESET_B 5.93173e-05
6 *2028:RESET_B 0.00020812
7 *2030:RESET_B 0.00132064
8 *2034:RESET_B 0.000147941
9 *2027:RESET_B 0.000680036
10 *2032:RESET_B 0
11 *1907:RESET_B 0.000119846
12 *1910:RESET_B 2.7221e-05
13 *2033:RESET_B 0.000599397
14 *1902:RESET_B 0.000218935
15 *1905:RESET_B 3.27288e-05
16 *1904:RESET_B 0.0001519
17 *1909:RESET_B 0.000249629
18 *1903:RESET_B 0
19 *1908:RESET_B 0.000393509
20 *2108:X 0.000396638
21 *446:183 0.000681901
22 *446:151 0.000833469
23 *446:135 0.00115391
24 *446:131 0.000466988
25 *446:121 0.000566123
26 *446:86 0.000228433
27 *446:84 0.000247094
28 *446:82 0.00108513
29 *446:68 0.000778327
30 *446:59 0.000391526
31 *446:49 0.000327499
32 *446:14 0.000491447
33 *446:12 0.000332681
34 *446:10 0.000624232
35 *1904:RESET_B *458:34 6.6869e-05
36 *1904:RESET_B *462:37 3.98859e-05
37 *1908:RESET_B *458:34 0.000161473
38 *1908:RESET_B *471:10 0.00014411
39 *1908:RESET_B *475:12 0.000438165
40 *1908:RESET_B *479:8 0.000693192
41 *1909:RESET_B *480:10 0.000133133
42 *1911:RESET_B *461:10 3.47776e-05
43 *1911:RESET_B *462:12 0
44 *2028:RESET_B *489:8 0
45 *2033:RESET_B *460:8 7.92721e-05
46 *2034:RESET_B *461:10 0.000139352
47 *446:10 *1625:A 1.03836e-05
48 *446:10 *1627:A 2.93747e-05
49 *446:10 *1675:A_N 0.000120631
50 *446:10 *1675:B 7.80291e-06
51 *446:10 *459:29 1.39158e-05
52 *446:12 *458:34 0.000117352
53 *446:12 *480:10 0.000116314
54 *446:14 *458:34 0.000155417
55 *446:14 *475:12 0.000240695
56 *446:49 *458:34 0.000183879
57 *446:59 *458:34 0.000246757
58 *446:59 *461:10 9.63918e-05
59 *446:59 *462:12 0
60 *446:59 *477:49 0
61 *446:59 *486:12 0.000141879
62 *446:121 *477:49 0.000186697
63 *446:131 *462:12 0
64 *446:131 *477:49 4.6318e-06
65 *446:135 *458:80 0.000139647
66 *446:151 *490:10 0.000313249
67 *446:183 *461:10 0.000148319
68 *446:183 *462:12 0
69 *1691:A *446:151 0.000316239
70 *1691:B *446:151 0.000185428
71 *1902:CLK *2033:RESET_B 9.84851e-05
72 *1906:CLK *1906:RESET_B 5.47927e-05
73 *1923:CLK *1908:RESET_B 0.000178517
74 *2030:CLK *2030:RESET_B 2.93747e-05
75 *5:9 *1907:RESET_B 0.000283088
76 *5:9 *446:82 8.4047e-05
77 *5:9 *446:84 0.000330135
78 *5:9 *446:86 0.000171906
79 *166:14 *446:10 2.80512e-05
80 *211:10 *446:59 1.47563e-05
81 *216:14 *1905:RESET_B 2.56078e-05
82 *409:8 *2028:RESET_B 0
83 *409:297 *2028:RESET_B 0
84 *409:297 *2029:RESET_B 0.000135344
85 *410:8 *446:151 9.84794e-05
86 *415:27 *2027:RESET_B 0.000487153
87 *418:84 *446:121 9.39056e-05
88 *418:84 *446:131 1.37349e-05
89 *418:97 *446:131 0.00021341
90 *418:97 *446:135 2.02508e-05
91 *418:110 *446:135 0.000114774
92 *418:135 *446:12 8.41012e-05
93 *418:135 *446:49 0.00010403
94 *418:135 *446:59 4.94517e-05
95 *418:137 *446:12 9.52677e-05
96 *418:137 *446:14 4.6318e-06
97 *418:139 *446:14 2.70366e-05
98 *418:160 *1908:RESET_B 0.000308218
*RES
1 *2108:X *446:10 45.1879 
2 *446:10 *446:12 4.72286 
3 *446:12 *446:14 4.01857 
4 *446:14 *1908:RESET_B 29.9039 
5 *446:14 *1903:RESET_B 15 
6 *446:12 *1909:RESET_B 16.9782 
7 *1909:RESET_B *1904:RESET_B 32.9311 
8 *446:10 *446:49 2.96214 
9 *446:49 *1905:RESET_B 15.5489 
10 *446:49 *446:59 6.13143 
11 *446:59 *1902:RESET_B 15 
12 *1902:RESET_B *446:68 3.42821 
13 *446:68 *2033:RESET_B 7.23964 
14 *2033:RESET_B *446:82 18.5525 
15 *446:82 *446:84 4.37071 
16 *446:84 *446:86 2.25786 
17 *446:86 *1910:RESET_B 15.6214 
18 *446:86 *1907:RESET_B 18.6664 
19 *446:84 *2032:RESET_B 15 
20 *446:82 *2027:RESET_B 25.2432 
21 *446:68 *446:121 20.075 
22 *446:121 *2034:RESET_B 17.9311 
23 *446:121 *446:131 5.77929 
24 *446:131 *446:135 20.4271 
25 *446:135 *2030:RESET_B 9.97393 
26 *2030:RESET_B *446:151 28.4539 
27 *446:151 *2028:RESET_B 18.6664 
28 *446:151 *2029:RESET_B 16.5018 
29 *446:135 *2031:RESET_B 2.95179 
30 *446:131 *2035:RESET_B 15.6214 
31 *446:59 *446:183 4.01857 
32 *446:183 *1906:RESET_B 20.9554 
33 *446:183 *1911:RESET_B 16.5536 
*END

*D_NET *447 0.0104147
*CONN
*I *2124:A I *D sky130_fd_sc_hd__buf_1
*I *1917:Q O *D sky130_fd_sc_hd__dfxtp_1
*CAP
1 *2124:A 0.000653361
2 *1917:Q 0.000545852
3 *447:16 0.00345598
4 *447:12 0.00280261
5 *447:10 0.000545852
6 *2124:A *1669:A 0.000279828
7 *2124:A *1669:B 0.000151601
8 *2124:A *475:8 2.80203e-05
9 *447:10 *451:141 3.46241e-05
10 *447:16 *475:8 2.095e-05
11 *1716:A3 *447:10 0.00026599
12 *1776:B_N *447:16 4.05745e-05
13 *1776:D *447:16 8.09334e-05
14 *1785:A *447:16 2.71046e-05
15 *1786:A1 *447:10 3.70094e-05
16 *1794:B *447:16 4.83479e-05
17 *1794:D *447:16 5.79715e-05
18 *2001:CLK *447:16 0.000198206
19 *2001:RESET_B *447:16 1.12709e-05
20 *2002:RESET_B *447:16 8.7843e-05
21 *198:10 *2124:A 5.3304e-05
22 *230:51 *447:10 0.000140259
23 *263:6 *447:10 6.9805e-05
24 *263:26 *447:10 7.53384e-06
25 *411:126 *447:10 1.60381e-05
26 *411:207 *447:16 0.000103637
27 *412:121 *447:16 0.00010299
28 *412:123 *447:16 2.4754e-05
29 *412:125 *447:16 7.43624e-05
30 *416:96 *447:10 0.000420128
31 *438:123 *447:16 2.80078e-05
*RES
1 *1917:Q *447:10 48.6886 
2 *447:10 *447:12 15 
3 *447:12 *447:16 37.5654 
4 *447:16 *2124:A 36.6196 
*END

*D_NET *448 0.00057752
*CONN
*I *2125:A I *D sky130_fd_sc_hd__buf_1
*I *1918:Q O *D sky130_fd_sc_hd__dfxtp_1
*CAP
1 *2125:A 0.000107369
2 *1918:Q 0.000136339
3 *448:8 0.000243708
4 *2125:A *452:8 9.01041e-05
5 *448:8 *2126:A 0
6 *448:8 *452:10 0
*RES
1 *1918:Q *448:8 40.2579 
2 *448:8 *2125:A 40.5271 
*END

*D_NET *449 0.00203914
*CONN
*I *2126:A I *D sky130_fd_sc_hd__buf_1
*I *1919:Q O *D sky130_fd_sc_hd__dfxtp_1
*CAP
1 *2126:A 0.000321136
2 *1919:Q 0.00027547
3 *449:8 0.000596606
4 *2126:A *452:10 0
5 *2126:A *452:14 0
6 *33:18 *2126:A 7.41334e-05
7 *262:28 *2126:A 2.47015e-05
8 *262:36 *449:8 0.000747093
9 *444:10 *2126:A 0
10 *448:8 *2126:A 0
*RES
1 *1919:Q *449:8 46.2443 
2 *449:8 *2126:A 44.4836 
*END

*D_NET *450 0.0218954
*CONN
*I *1711:A4 I *D sky130_fd_sc_hd__a41o_1
*I *1706:A3 I *D sky130_fd_sc_hd__a31o_1
*I *1823:C I *D sky130_fd_sc_hd__and4bb_4
*I *1859:C I *D sky130_fd_sc_hd__and4bb_4
*I *1813:C I *D sky130_fd_sc_hd__and4bb_4
*I *1758:C I *D sky130_fd_sc_hd__and4b_4
*I *1700:B I *D sky130_fd_sc_hd__nor2_1
*I *1776:C I *D sky130_fd_sc_hd__and4bb_4
*I *1710:C I *D sky130_fd_sc_hd__nand4_4
*I *1794:C I *D sky130_fd_sc_hd__and4b_4
*I *1785:C I *D sky130_fd_sc_hd__nand4_4
*I *1767:B I *D sky130_fd_sc_hd__nand4b_4
*I *1749:B I *D sky130_fd_sc_hd__nand4b_4
*I *1885:C I *D sky130_fd_sc_hd__and4b_4
*I *1832:B I *D sky130_fd_sc_hd__nand4b_4
*I *1868:B I *D sky130_fd_sc_hd__nand4b_4
*I *1703:A2 I *D sky130_fd_sc_hd__a21oi_1
*I *1850:C I *D sky130_fd_sc_hd__nand4_4
*I *1804:C I *D sky130_fd_sc_hd__nand4_4
*I *1841:C I *D sky130_fd_sc_hd__and4b_4
*I *2116:X O *D sky130_fd_sc_hd__buf_8
*CAP
1 *1711:A4 0
2 *1706:A3 0
3 *1823:C 0
4 *1859:C 0
5 *1813:C 0
6 *1758:C 0.000114501
7 *1700:B 0.000233825
8 *1776:C 0
9 *1710:C 2.34823e-05
10 *1794:C 0.000374991
11 *1785:C 0
12 *1767:B 8.30726e-05
13 *1749:B 1.80182e-05
14 *1885:C 0.000108369
15 *1832:B 6.53606e-05
16 *1868:B 4.24283e-05
17 *1703:A2 0.000300313
18 *1850:C 0
19 *1804:C 2.0995e-05
20 *1841:C 0
21 *2116:X 0.00017251
22 *450:240 0.000411284
23 *450:226 0.000697379
24 *450:196 0.000288438
25 *450:176 7.82175e-05
26 *450:170 0.000397719
27 *450:161 0.000696501
28 *450:142 0.000962334
29 *450:140 0.000206313
30 *450:131 0.00017351
31 *450:118 0.000328812
32 *450:107 0.00026042
33 *450:96 0.000293635
34 *450:61 0.00045442
35 *450:50 0.000340468
36 *450:39 0.000308972
37 *450:32 0.000300738
38 *450:22 0.00043073
39 *450:18 0.000278525
40 *450:16 0.00018983
41 *450:14 0.00047424
42 *450:12 0.00101314
43 *450:8 0.000997503
44 *450:8 *503:10 5.50049e-05
45 *450:22 *451:111 4.07715e-05
46 *450:107 *451:111 0.000115299
47 *450:118 *451:111 7.45278e-05
48 *450:131 *451:111 3.47776e-05
49 *450:226 *503:10 0.000302339
50 *450:240 *2000:D 0.000141974
51 *450:240 *474:8 0.000125404
52 *450:240 *474:12 0
53 *1703:A1 *1703:A2 6.17816e-05
54 *1703:B1 *1703:A2 1.38422e-05
55 *1705:A *1700:B 0.000265862
56 *1705:B *1700:B 0.000184527
57 *1708:B *450:8 5.41288e-05
58 *1708:B *450:12 1.76557e-05
59 *1710:B *1710:C 0
60 *1711:A2 *450:226 0
61 *1712:B *1700:B 0.000604916
62 *1715:B *450:176 1.22803e-05
63 *1758:B *1758:C 0.000351513
64 *1786:S *450:131 0.000191157
65 *1794:B *1794:C 0.000389772
66 *1794:B *450:161 8.34394e-05
67 *1794:D *1794:C 2.18506e-05
68 *1804:B *1804:C 1.14154e-05
69 *1804:B *450:39 2.93845e-05
70 *1804:B *450:50 0.000229856
71 *1813:D *1758:C 0.000137651
72 *1813:D *450:131 2.76611e-06
73 *1813:D *450:140 1.34354e-05
74 *1813:D *450:196 4.45924e-05
75 *1832:A_N *1832:B 4.41403e-05
76 *1850:A *1703:A2 5.83711e-06
77 *1850:B *1703:A2 5.41288e-05
78 *1850:D *450:50 3.46158e-05
79 *1850:D *450:61 9.5877e-05
80 *1859:B_N *450:14 0.000308039
81 *1885:D *1885:C 2.93845e-05
82 *2000:RESET_B *450:240 0.000147834
83 *165:21 *450:226 0
84 *230:51 *1758:C 0.000138047
85 *232:10 *450:176 5.45887e-05
86 *233:10 *450:161 2.45549e-06
87 *261:8 *1749:B 5.50106e-05
88 *261:14 *450:131 5.40762e-05
89 *262:67 *1749:B 2.93845e-05
90 *265:14 *1767:B 1.97656e-05
91 *265:101 *450:176 6.4393e-05
92 *266:19 *450:131 2.77955e-05
93 *266:19 *450:140 6.16439e-05
94 *266:19 *450:196 0.000369389
95 *268:10 *1885:C 0.000310647
96 *268:10 *450:18 3.70094e-05
97 *268:10 *450:96 0.000114092
98 *268:27 *450:14 0.000137651
99 *272:14 *1868:B 0.000141879
100 *272:14 *450:61 6.25829e-05
101 *273:8 *450:32 0.000107641
102 *275:107 *450:32 0.000267178
103 *275:107 *450:39 0.000125213
104 *275:107 *450:50 0.000545234
105 *275:107 *450:61 1.56762e-05
106 *276:12 *450:14 2.32101e-05
107 *277:86 *1868:B 0.000132665
108 *277:86 *450:61 6.48142e-05
109 *278:10 *1885:C 0.000139357
110 *278:10 *450:18 0.000289964
111 *278:10 *450:22 0.000114083
112 *278:10 *450:96 0.000132665
113 *278:10 *450:107 2.55642e-05
114 *278:22 *450:32 7.92108e-05
115 *278:88 *450:32 1.40958e-05
116 *278:88 *450:39 2.43944e-05
117 *407:265 *450:32 0
118 *408:90 *450:196 0.000103097
119 *408:111 *450:18 0.000169721
120 *408:111 *450:22 0.000192087
121 *408:111 *450:96 1.22803e-05
122 *408:111 *450:107 0.000127672
123 *408:111 *450:118 6.88452e-05
124 *408:111 *450:131 6.7177e-06
125 *408:111 *450:161 5.56203e-05
126 *411:43 *1703:A2 2.44913e-05
127 *411:43 *450:61 0.000182832
128 *411:64 *450:14 6.53382e-05
129 *411:70 *1885:C 6.33508e-05
130 *411:126 *1758:C 2.4754e-05
131 *411:244 *1703:A2 3.53115e-05
132 *412:123 *450:161 5.37348e-06
133 *412:125 *450:161 4.38771e-05
134 *412:133 *1767:B 9.84851e-05
135 *412:133 *450:131 1.12487e-05
136 *412:158 *450:161 0.000111852
137 *412:162 *1700:B 2.93845e-05
138 *412:162 *450:161 0.000225389
139 *412:162 *450:170 7.44257e-05
140 *412:256 *450:240 0.000218962
141 *413:36 *450:226 5.31444e-05
142 *413:72 *450:240 0.000351187
143 *413:76 *450:240 3.90291e-05
144 *413:80 *450:240 3.66365e-05
145 *416:180 *1767:B 0.000180849
146 *423:29 *1700:B 1.22822e-05
147 *432:113 *450:226 1.69668e-05
*RES
1 *2116:X *450:8 26.0243 
2 *450:8 *450:12 6.83571 
3 *450:12 *450:14 8.24429 
4 *450:14 *450:16 15 
5 *450:16 *450:18 4.01857 
6 *450:18 *450:22 17.61 
7 *450:22 *450:32 36.5871 
8 *450:32 *1841:C 23 
9 *450:22 *450:39 1.57429 
10 *450:39 *1804:C 23.4971 
11 *450:39 *450:50 6.83571 
12 *450:50 *1850:C 23 
13 *450:50 *450:61 18.3764 
14 *450:61 *1703:A2 42.9818 
15 *450:61 *1868:B 39.9057 
16 *450:18 *1832:B 39.1186 
17 *450:16 *450:96 1.90571 
18 *450:96 *1885:C 41.9564 
19 *450:96 *450:107 3.66643 
20 *450:107 *1749:B 38.6214 
21 *450:107 *450:118 2.25786 
22 *450:118 *1767:B 40.5479 
23 *450:118 *450:131 3.66643 
24 *450:131 *1785:C 38 
25 *450:131 *450:140 0.849286 
26 *450:140 *450:142 15 
27 *450:142 *1794:C 28.4064 
28 *450:142 *450:161 39.4664 
29 *450:161 *1710:C 23.4971 
30 *450:161 *450:170 1.57429 
31 *450:170 *450:176 31.9057 
32 *450:176 *1776:C 23 
33 *450:170 *1700:B 31.8864 
34 *450:140 *450:196 20.075 
35 *450:196 *1758:C 27.4329 
36 *450:196 *1813:C 23 
37 *450:14 *1859:C 23 
38 *450:12 *1823:C 23 
39 *450:8 *450:226 35.8207 
40 *450:226 *450:240 43.775 
41 *450:240 *1706:A3 23 
42 *450:226 *1711:A4 23 
*END

*D_NET *451 0.0333827
*CONN
*I *1833:A0 I *D sky130_fd_sc_hd__mux2_1
*I *1795:A1 I *D sky130_fd_sc_hd__mux2_1
*I *1759:A1 I *D sky130_fd_sc_hd__mux2_1
*I *1777:A1 I *D sky130_fd_sc_hd__mux2_1
*I *1768:A0 I *D sky130_fd_sc_hd__mux2_1
*I *1877:A0 I *D sky130_fd_sc_hd__mux2_1
*I *1814:A1 I *D sky130_fd_sc_hd__mux2_1
*I *1786:A0 I *D sky130_fd_sc_hd__mux2_1
*I *1750:A0 I *D sky130_fd_sc_hd__mux2_1
*I *1860:A1 I *D sky130_fd_sc_hd__mux2_1
*I *1842:A1 I *D sky130_fd_sc_hd__mux2_1
*I *1805:A0 I *D sky130_fd_sc_hd__mux2_1
*I *1869:A0 I *D sky130_fd_sc_hd__mux2_1
*I *1851:A0 I *D sky130_fd_sc_hd__mux2_1
*I *1824:A1 I *D sky130_fd_sc_hd__mux2_1
*I *1886:A1 I *D sky130_fd_sc_hd__mux2_1
*I *2109:X O *D sky130_fd_sc_hd__clkbuf_4
*CAP
1 *1833:A0 0
2 *1795:A1 0.00069916
3 *1759:A1 0.000177761
4 *1777:A1 0
5 *1768:A0 0
6 *1877:A0 5.80982e-05
7 *1814:A1 3.57804e-05
8 *1786:A0 0
9 *1750:A0 0
10 *1860:A1 0.000214893
11 *1842:A1 5.6608e-05
12 *1805:A0 0
13 *1869:A0 0.000162337
14 *1851:A0 0.00011508
15 *1824:A1 0.000686006
16 *1886:A1 0
17 *2109:X 7.19649e-05
18 *451:183 4.9395e-05
19 *451:177 0.00111666
20 *451:169 0.00131052
21 *451:158 0.000524657
22 *451:143 0.000545419
23 *451:141 0.00136813
24 *451:127 0.000179487
25 *451:119 0.000284397
26 *451:115 0.000784923
27 *451:111 0.00123906
28 *451:101 0.00138442
29 *451:86 0.000687371
30 *451:75 0.000364975
31 *451:66 0.000323177
32 *451:55 0.000447184
33 *451:44 0.000330107
34 *451:29 0.000956008
35 *451:18 0.000449844
36 *451:12 0.00320548
37 *451:10 0.00287314
38 *451:8 7.19649e-05
39 *451:8 *456:18 6.07611e-06
40 *451:101 *452:89 0.00020956
41 *451:111 *452:79 0.000164282
42 *451:111 *452:81 0.000482051
43 *451:111 *452:83 9.03784e-05
44 *451:111 *452:89 0.000309971
45 *1716:A0 *451:141 0.000146216
46 *1716:A1 *451:127 0.000127272
47 *1716:A3 *451:141 0.000129024
48 *1716:S0 *451:141 0.000118174
49 *1777:A0 *451:183 8.85189e-05
50 *1786:A1 *451:115 1.72202e-05
51 *1786:A1 *451:119 2.93845e-05
52 *1786:A1 *451:141 2.35393e-05
53 *1786:S *451:115 0.000305431
54 *1804:A *451:111 6.78359e-05
55 *1814:A0 *451:141 7.95085e-05
56 *1814:A0 *451:143 7.13794e-05
57 *1851:A1 *1851:A0 0.000137651
58 *1938:CLK *451:177 0.000119528
59 *1938:D *451:177 2.31797e-05
60 *2019:D *1824:A1 1.74843e-05
61 *2060:CLK *1824:A1 4.67488e-05
62 *2091:A *1795:A1 0.000112612
63 *2109:A *451:8 2.54046e-05
64 *43:8 *1759:A1 8.62876e-05
65 *43:8 *451:158 0.000398655
66 *43:8 *451:169 0.000142808
67 *67:10 *451:127 1.59094e-05
68 *139:10 *1869:A0 2.64616e-05
69 *147:8 *451:158 3.5664e-05
70 *231:24 *451:177 1.61361e-05
71 *231:30 *451:177 0.000140288
72 *231:45 *1877:A0 1.05235e-05
73 *231:45 *451:177 0.000182826
74 *239:10 *451:86 0.000379403
75 *239:10 *451:101 0.000272321
76 *246:10 *451:183 4.42688e-05
77 *261:14 *451:111 0.000216721
78 *263:95 *1759:A1 0
79 *263:95 *451:158 0
80 *263:95 *451:169 0
81 *263:110 *1759:A1 0
82 *265:14 *451:115 0.000305431
83 *265:26 *451:141 8.62783e-05
84 *265:101 *451:183 0.000169674
85 *268:48 *451:111 0.000166532
86 *269:8 *451:111 0.000310655
87 *270:30 *1814:A1 2.93747e-05
88 *272:31 *451:29 2.65879e-05
89 *273:8 *451:111 0.000141304
90 *274:10 *451:111 0.000696784
91 *274:20 *451:111 0.000195238
92 *274:127 *451:75 6.48049e-05
93 *274:127 *451:86 0.000603633
94 *274:127 *451:101 0.000263098
95 *275:30 *451:66 0
96 *277:100 *1869:A0 0.000223698
97 *277:100 *451:18 0
98 *277:100 *451:29 1.12487e-05
99 *277:100 *451:44 9.52274e-05
100 *277:100 *451:55 6.79006e-05
101 *277:100 *451:66 1.83667e-05
102 *278:10 *451:111 0.000564507
103 *278:98 *451:18 1.58805e-05
104 *278:98 *451:29 5.21127e-05
105 *278:98 *451:44 0.000157352
106 *278:98 *451:55 6.57448e-05
107 *278:98 *451:66 0.000218583
108 *278:98 *451:75 9.79539e-05
109 *278:102 *451:29 5.50049e-05
110 *278:110 *451:29 5.50106e-05
111 *319:23 *1759:A1 0.000141954
112 *343:12 *451:29 0.000265178
113 *343:12 *451:44 0.000145049
114 *343:27 *1824:A1 1.32939e-05
115 *351:10 *1824:A1 5.72217e-05
116 *375:23 *1842:A1 9.41704e-05
117 *383:14 *451:75 0.000246739
118 *383:14 *451:86 0.000163352
119 *399:10 *451:127 1.14452e-05
120 *407:265 *451:141 0.000318429
121 *407:546 *451:44 2.11157e-05
122 *408:111 *451:111 2.69307e-05
123 *408:146 *451:66 0
124 *408:146 *451:75 0
125 *408:148 *1869:A0 2.98648e-05
126 *409:117 *1860:A1 0.000184805
127 *411:76 *451:111 7.66085e-05
128 *411:94 *451:111 6.95872e-05
129 *411:111 *451:111 1.02387e-05
130 *416:92 *451:119 1.03836e-05
131 *416:92 *451:127 0.0002263
132 *416:96 *1795:A1 6.12496e-06
133 *416:96 *451:141 0
134 *416:96 *451:143 0
135 *416:105 *451:143 0
136 *416:105 *451:158 0
137 *416:120 *1759:A1 0
138 *416:194 *451:86 2.29895e-05
139 *422:18 *451:143 0
140 *422:18 *451:158 0
141 *422:26 *1795:A1 0.000188693
142 *430:14 *1824:A1 0.000283197
143 *430:16 *1824:A1 2.02872e-05
144 *447:10 *451:141 3.46241e-05
145 *450:22 *451:111 4.07715e-05
146 *450:107 *451:111 0.000115299
147 *450:118 *451:111 7.45278e-05
148 *450:131 *451:111 3.47776e-05
*RES
1 *2109:X *451:8 39.2014 
2 *451:8 *451:10 15 
3 *451:10 *451:12 38.2593 
4 *451:12 *451:18 35.4271 
5 *451:18 *1886:A1 23 
6 *451:18 *451:29 18.6043 
7 *451:29 *1824:A1 49.745 
8 *451:29 *451:44 4.72286 
9 *451:44 *1851:A0 39.5743 
10 *451:44 *451:55 1.90571 
11 *451:55 *1869:A0 41.48 
12 *451:55 *451:66 5.77929 
13 *451:66 *1805:A0 38 
14 *451:66 *451:75 3.66643 
15 *451:75 *1842:A1 39.0979 
16 *451:75 *451:86 8.24429 
17 *451:86 *1860:A1 41.9564 
18 *451:86 *451:101 21.1936 
19 *451:101 *451:111 49.075 
20 *451:111 *451:115 18.9564 
21 *451:115 *451:119 1.94714 
22 *451:119 *451:127 34.4329 
23 *451:127 *1750:A0 23 
24 *451:119 *1786:A0 23 
25 *451:115 *451:141 26.9418 
26 *451:141 *451:143 2.43393 
27 *451:143 *1814:A1 38.6214 
28 *451:143 *451:158 7.95429 
29 *451:158 *1877:A0 38.6214 
30 *451:158 *451:169 1.90571 
31 *451:169 *451:177 29.0029 
32 *451:177 *451:183 32.2579 
33 *451:183 *1768:A0 23 
34 *451:177 *1777:A1 23 
35 *451:169 *1759:A1 41.9564 
36 *451:141 *1795:A1 48.5125 
37 *451:101 *1833:A0 23 
*END

*D_NET *452 0.0341675
*CONN
*I *1751:A0 I *D sky130_fd_sc_hd__mux2_1
*I *1815:A1 I *D sky130_fd_sc_hd__mux2_1
*I *1787:A0 I *D sky130_fd_sc_hd__mux2_1
*I *1778:A1 I *D sky130_fd_sc_hd__mux2_1
*I *1769:A0 I *D sky130_fd_sc_hd__mux2_1
*I *1878:A0 I *D sky130_fd_sc_hd__mux2_1
*I *1760:A1 I *D sky130_fd_sc_hd__mux2_1
*I *1796:A1 I *D sky130_fd_sc_hd__mux2_1
*I *1806:A0 I *D sky130_fd_sc_hd__mux2_1
*I *1861:A1 I *D sky130_fd_sc_hd__mux2_1
*I *1843:A1 I *D sky130_fd_sc_hd__mux2_1
*I *1852:A0 I *D sky130_fd_sc_hd__mux2_1
*I *1887:A1 I *D sky130_fd_sc_hd__mux2_1
*I *1834:A0 I *D sky130_fd_sc_hd__mux2_1
*I *1825:A1 I *D sky130_fd_sc_hd__mux2_1
*I *1870:A0 I *D sky130_fd_sc_hd__mux2_1
*I *2110:X O *D sky130_fd_sc_hd__clkbuf_4
*CAP
1 *1751:A0 2.95294e-05
2 *1815:A1 0.000404149
3 *1787:A0 2.77218e-05
4 *1778:A1 0.00012754
5 *1769:A0 6.96603e-05
6 *1878:A0 0
7 *1760:A1 0
8 *1796:A1 0
9 *1806:A0 0.000685425
10 *1861:A1 3.92522e-05
11 *1843:A1 0.000271202
12 *1852:A0 0.000154546
13 *1887:A1 0
14 *1834:A0 8.5046e-05
15 *1825:A1 0
16 *1870:A0 0
17 *2110:X 0.000785495
18 *452:191 0.000431871
19 *452:156 0.000560814
20 *452:150 0.000883849
21 *452:134 0.000731576
22 *452:89 0.000562857
23 *452:83 0.000708097
24 *452:81 0.000228363
25 *452:79 0.00090999
26 *452:68 0.000258841
27 *452:54 0.000283477
28 *452:46 0.000840053
29 *452:32 0.00253456
30 *452:22 0.00239833
31 *452:20 0.000453083
32 *452:16 0.000797963
33 *452:14 0.000705951
34 *452:10 0.000588221
35 *452:8 0.00104679
36 *452:156 *454:147 0
37 *1622:A *452:156 0
38 *1719:A2 *452:32 0.000423298
39 *1726:A1 *452:10 0
40 *1729:A3 *1806:A0 0.000701013
41 *1729:S1 *1806:A0 6.17437e-06
42 *1751:A1 *1751:A0 5.50049e-05
43 *1769:A1 *1769:A0 5.73288e-05
44 *1778:S *1778:A1 9.5877e-05
45 *1787:S *1787:A0 5.3304e-05
46 *1787:S *1815:A1 4.2573e-05
47 *1806:S *1806:A0 1.4345e-05
48 *1834:A1 *1834:A0 5.67058e-05
49 *1834:S *1834:A0 5.50049e-05
50 *1843:S *1861:A1 9.41704e-05
51 *1852:S *1852:A0 6.17437e-06
52 *1861:A0 *1843:A1 4.6595e-05
53 *1861:A0 *1861:A1 5.3304e-05
54 *1870:S *452:54 0.000148698
55 *1878:A1 *452:20 4.31159e-05
56 *1878:A1 *452:22 0
57 *1878:A1 *452:134 0.000114969
58 *1887:A0 *1852:A0 0.000304518
59 *1887:A0 *452:89 5.67058e-05
60 *1887:S *1852:A0 2.18409e-05
61 *1887:S *452:89 0.000223672
62 *1913:CLK *452:14 0
63 *2045:CLK *452:54 0
64 *2120:A *452:8 7.24365e-05
65 *2125:A *452:8 9.01041e-05
66 *2126:A *452:10 0
67 *2126:A *452:14 0
68 *36:10 *452:10 0
69 *44:12 *452:150 0
70 *156:10 *452:89 5.50049e-05
71 *164:18 *452:156 0
72 *233:10 *452:32 0.000205512
73 *239:10 *452:32 0.000124131
74 *262:22 *452:16 0.000138621
75 *262:22 *452:32 0.000208472
76 *263:110 *452:150 5.50106e-05
77 *263:110 *452:156 0
78 *263:120 *452:156 0.000443562
79 *264:8 *452:32 4.85126e-05
80 *264:102 *452:32 0.000158536
81 *264:123 *1769:A0 5.50049e-05
82 *264:123 *452:32 0.000174958
83 *268:27 *452:32 0.00013404
84 *268:38 *452:32 9.03157e-05
85 *268:48 *452:32 4.08641e-05
86 *269:8 *452:79 0.000154138
87 *269:8 *452:81 0.000145969
88 *269:12 *452:81 0.000336072
89 *269:12 *452:83 7.70737e-05
90 *269:12 *452:89 0.000114074
91 *269:61 *1806:A0 4.9424e-06
92 *269:71 *1806:A0 1.32939e-05
93 *270:89 *452:150 0.000485212
94 *270:149 *1815:A1 0.000147712
95 *272:14 *452:46 9.67842e-05
96 *272:23 *452:46 9.67842e-05
97 *273:27 *1834:A0 9.41704e-05
98 *273:27 *452:46 0.000112665
99 *273:27 *452:68 0.000245199
100 *274:20 *452:89 0.00011077
101 *275:16 *452:54 0.000122397
102 *275:30 *1852:A0 0.000145326
103 *276:16 *452:32 3.89103e-05
104 *278:88 *452:32 0.000419283
105 *278:88 *452:46 6.16439e-05
106 *278:94 *452:89 0.000139357
107 *296:6 *1787:A0 2.64616e-05
108 *296:6 *1815:A1 6.17437e-06
109 *296:12 *452:14 0.000138718
110 *304:20 *1778:A1 0.000394994
111 *312:14 *452:150 5.3304e-05
112 *312:14 *452:156 2.76611e-06
113 *320:21 *452:20 3.0647e-05
114 *320:21 *452:150 0.000152237
115 *328:10 *452:20 4.83838e-05
116 *352:10 *452:54 2.93845e-05
117 *376:29 *1806:A0 7.02666e-06
118 *376:29 *1843:A1 0.000274078
119 *400:10 *452:10 0
120 *407:12 *1769:A0 1.72202e-05
121 *407:43 *452:150 0.000225155
122 *407:221 *1778:A1 0.000140259
123 *407:225 *452:14 0.000111148
124 *407:225 *452:16 0.000260791
125 *407:225 *452:20 7.75736e-06
126 *407:234 *452:22 0.000107538
127 *407:234 *452:32 0.000286106
128 *408:30 *452:14 2.472e-05
129 *408:45 *452:14 2.13834e-05
130 *408:45 *452:16 8.4047e-05
131 *408:49 *452:16 0.000750147
132 *408:49 *452:20 5.80848e-05
133 *408:70 *452:20 7.24504e-05
134 *408:78 *452:20 0.000107548
135 *408:78 *452:22 0.000300108
136 *408:78 *452:32 0.000167443
137 *408:111 *452:32 0
138 *409:52 *452:20 0
139 *409:63 *452:32 0.00137371
140 *409:73 *452:32 8.62876e-05
141 *409:148 *452:156 0
142 *410:117 *452:156 2.96154e-05
143 *412:158 *452:32 0.000247687
144 *412:182 *452:32 0.000194327
145 *416:120 *452:150 0.000117563
146 *416:169 *452:150 0.000134896
147 *425:26 *452:156 0
148 *425:75 *452:156 0
149 *431:6 *452:46 0.000344002
150 *431:8 *452:46 0.000109566
151 *431:12 *1834:A0 0.000267161
152 *431:12 *452:68 0.000257636
153 *431:70 *452:46 0.00025304
154 *445:16 *452:8 5.41385e-05
155 *448:8 *452:10 0
156 *451:101 *452:89 0.00020956
157 *451:111 *452:79 0.000164282
158 *451:111 *452:81 0.000482051
159 *451:111 *452:83 9.03784e-05
160 *451:111 *452:89 0.000309971
*RES
1 *2110:X *452:8 49.1029 
2 *452:8 *452:10 4.72286 
3 *452:10 *452:14 6.40071 
4 *452:14 *452:16 11.4136 
5 *452:16 *452:20 6.40071 
6 *452:20 *452:22 4.01857 
7 *452:22 *452:32 48.9893 
8 *452:32 *452:46 27.76 
9 *452:46 *452:54 36.3179 
10 *452:54 *1870:A0 23 
11 *452:46 *1825:A1 23 
12 *452:32 *452:68 18.0036 
13 *452:68 *1834:A0 26.0036 
14 *452:68 *452:79 17.2579 
15 *452:79 *452:81 6.48357 
16 *452:81 *452:83 1.20143 
17 *452:83 *452:89 25.7507 
18 *452:89 *1887:A1 23 
19 *452:89 *1852:A0 26.9564 
20 *452:83 *1843:A1 42.4329 
21 *452:81 *1861:A1 39.0979 
22 *452:79 *1806:A0 48.875 
23 *452:22 *452:134 19.9093 
24 *452:134 *452:150 41.7243 
25 *452:150 *452:156 40.7093 
26 *452:156 *1796:A1 23 
27 *452:150 *1760:A1 23 
28 *452:134 *1878:A0 23 
29 *452:20 *1769:A0 39.5743 
30 *452:16 *1778:A1 42.4329 
31 *452:14 *452:191 15 
32 *452:191 *1787:A0 23.6214 
33 *452:191 *1815:A1 29.38 
34 *452:10 *1751:A0 38.6214 
*END

*D_NET *453 0.0257999
*CONN
*I *1853:A0 I *D sky130_fd_sc_hd__mux2_1
*I *1835:A0 I *D sky130_fd_sc_hd__mux2_1
*I *1816:A1 I *D sky130_fd_sc_hd__mux2_1
*I *1779:A1 I *D sky130_fd_sc_hd__mux2_1
*I *1752:A0 I *D sky130_fd_sc_hd__mux2_1
*I *1797:A1 I *D sky130_fd_sc_hd__mux2_1
*I *1788:A0 I *D sky130_fd_sc_hd__mux2_1
*I *1761:A1 I *D sky130_fd_sc_hd__mux2_1
*I *1770:A0 I *D sky130_fd_sc_hd__mux2_1
*I *1879:A0 I *D sky130_fd_sc_hd__mux2_1
*I *1862:A1 I *D sky130_fd_sc_hd__mux2_1
*I *1844:A1 I *D sky130_fd_sc_hd__mux2_1
*I *1807:A0 I *D sky130_fd_sc_hd__mux2_1
*I *1888:A1 I *D sky130_fd_sc_hd__mux2_1
*I *1871:A0 I *D sky130_fd_sc_hd__mux2_1
*I *1826:A1 I *D sky130_fd_sc_hd__mux2_1
*I *2111:X O *D sky130_fd_sc_hd__clkbuf_4
*CAP
1 *1853:A0 0.000168059
2 *1835:A0 0
3 *1816:A1 0
4 *1779:A1 0.000316596
5 *1752:A0 0
6 *1797:A1 0
7 *1788:A0 0
8 *1761:A1 0
9 *1770:A0 0
10 *1879:A0 4.25104e-05
11 *1862:A1 0
12 *1844:A1 0.000243288
13 *1807:A0 9.40153e-05
14 *1888:A1 0
15 *1871:A0 0.000377406
16 *1826:A1 0
17 *2111:X 0.000100025
18 *453:164 0.000687477
19 *453:143 0.000380162
20 *453:133 0.000729676
21 *453:131 0.000681247
22 *453:125 0.000845
23 *453:116 0.00027935
24 *453:109 0.000609012
25 *453:92 0.000651522
26 *453:90 0.00199342
27 *453:88 0.00193128
28 *453:79 0.000415458
29 *453:70 0.000971493
30 *453:57 0.000661619
31 *453:51 0.000339086
32 *453:33 0.000569761
33 *453:29 0.000467021
34 *453:25 0.000837335
35 *453:14 0.000375869
36 *453:8 0.00102956
37 *453:8 *456:10 0.000144494
38 *453:14 *455:14 0.000117209
39 *453:14 *456:10 0.00112919
40 *453:90 *1866:A1 0
41 *453:90 *457:31 0
42 *453:90 *457:33 0
43 *453:90 *457:39 0
44 *453:90 *457:52 0
45 *453:109 *457:31 0
46 *453:116 *457:31 0
47 *453:125 *457:31 0
48 *453:164 *457:31 0
49 *1739:A1 *1779:A1 1.5769e-05
50 *1752:S *453:131 0.000495435
51 *1752:S *453:133 4.93812e-05
52 *1770:A1 *453:109 0.000353548
53 *1779:A0 *1779:A1 0.000244801
54 *1788:S *453:143 3.7122e-06
55 *1807:S *1807:A0 5.3304e-05
56 *1816:S *1779:A1 1.14154e-05
57 *1819:S *453:116 2.76611e-06
58 *1819:S *453:125 6.43149e-05
59 *1819:S *453:164 0.000124418
60 *1826:A0 *453:14 5.67058e-05
61 *1835:A1 *453:57 0.000512977
62 *1835:A1 *453:70 0.000228042
63 *1862:A0 *453:79 2.64616e-05
64 *1862:A0 *453:88 2.32101e-05
65 *1879:A1 *1879:A0 5.50049e-05
66 *1879:A1 *453:109 0.000426938
67 *1888:A0 *1871:A0 2.93747e-05
68 *1888:A0 *453:33 1.76557e-05
69 *2113:A *453:14 0.000148524
70 *16:33 *453:109 0.000396683
71 *69:8 *453:143 0.000192681
72 *77:8 *453:143 4.31263e-05
73 *125:8 *453:25 8.87374e-05
74 *129:10 *453:90 0.000126463
75 *149:10 *453:90 0.000171906
76 *157:8 *453:29 4.08641e-05
77 *231:65 *453:109 4.18957e-05
78 *265:69 *1779:A1 2.02517e-05
79 *266:83 *453:143 0.00012085
80 *269:137 *453:70 0.00026813
81 *270:30 *1779:A1 7.43025e-06
82 *270:34 *1779:A1 2.4754e-05
83 *270:34 *453:164 0.000438468
84 *273:67 *453:51 9.48381e-06
85 *273:67 *453:90 7.80251e-05
86 *273:84 *453:90 0.000544299
87 *274:55 *453:79 3.22118e-05
88 *274:55 *453:88 1.32939e-05
89 *276:86 *453:90 0
90 *278:41 *453:90 0
91 *278:47 *453:51 0
92 *278:47 *453:90 0
93 *289:12 *453:143 0.000301409
94 *305:8 *453:109 4.6318e-06
95 *369:10 *453:70 0.000136486
96 *377:10 *453:51 5.94125e-05
97 *377:25 *1844:A1 0.000170285
98 *377:25 *453:79 0.00014375
99 *407:325 *453:70 0.000149454
100 *408:269 *453:90 0.000765702
101 *408:431 *1779:A1 0.000143348
102 *408:431 *453:164 0.000371059
103 *416:66 *453:109 0
104 *416:72 *453:131 0.000308258
105 *419:14 *453:57 0.000316338
106 *427:10 *453:90 0
107 *427:21 *453:90 0
108 *427:43 *453:90 0
109 *433:8 *453:131 5.50106e-05
110 *433:10 *453:90 0
111 *433:10 *453:116 0
112 *433:14 *453:90 0
113 *433:55 *453:90 8.33262e-05
*RES
1 *2111:X *453:8 39.5743 
2 *453:8 *453:14 28.8579 
3 *453:14 *1826:A1 23 
4 *453:8 *453:25 24.6943 
5 *453:25 *453:29 17.2579 
6 *453:29 *453:33 18.48 
7 *453:33 *1871:A0 29.8357 
8 *453:33 *1888:A1 23 
9 *453:29 *453:51 17.9621 
10 *453:51 *453:57 21.09 
11 *453:57 *1807:A0 39.5743 
12 *453:57 *453:70 24.6529 
13 *453:70 *1844:A1 26.48 
14 *453:70 *453:79 4.90929 
15 *453:79 *1862:A1 23 
16 *453:79 *453:88 16.0979 
17 *453:88 *453:90 39.585 
18 *453:90 *453:92 15 
19 *453:92 *1879:A0 23.6214 
20 *453:92 *453:109 43.3607 
21 *453:109 *1770:A0 23 
22 *453:90 *453:116 2.25786 
23 *453:116 *1761:A1 38 
24 *453:116 *453:125 2.96214 
25 *453:125 *453:131 24.2179 
26 *453:131 *453:133 5.86214 
27 *453:133 *453:143 39.3836 
28 *453:143 *1788:A0 23 
29 *453:133 *1797:A1 23 
30 *453:131 *1752:A0 23 
31 *453:125 *453:164 25.3364 
32 *453:164 *1779:A1 30.3329 
33 *453:164 *1816:A1 23 
34 *453:51 *1835:A0 23 
35 *453:25 *1853:A0 25.0507 
*END

*D_NET *454 0.0276476
*CONN
*I *1753:A0 I *D sky130_fd_sc_hd__mux2_1
*I *1789:A0 I *D sky130_fd_sc_hd__mux2_1
*I *1817:A1 I *D sky130_fd_sc_hd__mux2_1
*I *1798:A1 I *D sky130_fd_sc_hd__mux2_1
*I *1762:A1 I *D sky130_fd_sc_hd__mux2_1
*I *1771:A0 I *D sky130_fd_sc_hd__mux2_1
*I *1780:A1 I *D sky130_fd_sc_hd__mux2_1
*I *1880:A0 I *D sky130_fd_sc_hd__mux2_1
*I *1854:A0 I *D sky130_fd_sc_hd__mux2_1
*I *1827:A1 I *D sky130_fd_sc_hd__mux2_1
*I *1872:A0 I *D sky130_fd_sc_hd__mux2_1
*I *1808:A0 I *D sky130_fd_sc_hd__mux2_1
*I *1836:A0 I *D sky130_fd_sc_hd__mux2_1
*I *1863:A1 I *D sky130_fd_sc_hd__mux2_1
*I *1845:A1 I *D sky130_fd_sc_hd__mux2_1
*I *1889:A1 I *D sky130_fd_sc_hd__mux2_1
*I *2112:X O *D sky130_fd_sc_hd__clkbuf_4
*CAP
1 *1753:A0 5.15114e-05
2 *1789:A0 0.00038216
3 *1817:A1 0.000198297
4 *1798:A1 0.000294091
5 *1762:A1 2.98657e-06
6 *1771:A0 0
7 *1780:A1 0
8 *1880:A0 3.20452e-05
9 *1854:A0 9.01176e-05
10 *1827:A1 0
11 *1872:A0 0
12 *1808:A0 0
13 *1836:A0 5.24109e-05
14 *1863:A1 0
15 *1845:A1 0.000542639
16 *1889:A1 0
17 *2112:X 0.00067083
18 *454:147 0.000177039
19 *454:141 0.000614729
20 *454:129 0.00094468
21 *454:102 0.000742011
22 *454:89 0.00101743
23 *454:53 0.000782061
24 *454:49 0.000508146
25 *454:41 0.00068257
26 *454:34 0.000579722
27 *454:28 0.00193573
28 *454:26 0.00159957
29 *454:22 0.000824017
30 *454:20 0.000461624
31 *454:16 0.00069349
32 *454:14 0.0004265
33 *454:12 0.000681821
34 *454:10 0.000940796
35 *1845:A1 *456:84 0
36 *454:28 *455:102 0.000990646
37 *454:28 *455:145 0.00031665
38 *454:28 *455:160 0.00021623
39 *454:34 *455:102 0.000750801
40 *454:49 *456:84 0.000114083
41 *1647:S0 *1789:A0 0.00035335
42 *1740:A1 *454:12 0
43 *1740:S0 *1789:A0 1.21972e-05
44 *1808:A1 *454:89 0.000264559
45 *1817:A0 *1817:A1 0.000487831
46 *1836:A1 *1836:A0 1.21972e-05
47 *1836:A1 *454:49 6.343e-05
48 *1836:A1 *454:53 0
49 *1845:A0 *1845:A1 0.000187129
50 *1845:S *1845:A1 7.88828e-05
51 *1854:S *454:34 0
52 *1872:A1 *454:89 1.59094e-05
53 *1872:A1 *454:102 0.00010776
54 *1872:S *454:89 1.38697e-05
55 *1880:S *454:28 0.000211599
56 *1897:CLK *454:10 0
57 *1897:CLK *454:12 0
58 *1897:CLK *454:14 0
59 *1963:CLK *1817:A1 0.000151016
60 *1981:D *1817:A1 9.5915e-05
61 *31:14 *454:141 5.51335e-05
62 *38:8 *454:10 5.56203e-05
63 *44:12 *454:141 0.000524204
64 *110:8 *454:53 8.48131e-05
65 *163:73 *454:129 0.000692404
66 *163:73 *454:141 0.000277339
67 *164:18 *454:147 5.07109e-05
68 *164:28 *1880:A0 5.3304e-05
69 *164:28 *454:20 1.52259e-05
70 *164:28 *454:22 0.000161911
71 *164:28 *454:26 5.56306e-05
72 *176:12 *454:28 0
73 *176:12 *454:34 0
74 *183:10 *1845:A1 0.000185676
75 *183:10 *454:53 0.000178558
76 *231:51 *454:28 0.000174324
77 *262:51 *1753:A0 9.84851e-05
78 *263:86 *454:28 0.000810871
79 *263:110 *454:147 3.70187e-05
80 *264:26 *454:28 0
81 *264:68 *454:141 3.93338e-05
82 *265:131 *454:147 1.34542e-05
83 *267:26 *454:28 6.6869e-05
84 *267:73 *1798:A1 0.000132227
85 *267:85 *1798:A1 2.30292e-05
86 *269:77 *454:49 3.31683e-05
87 *269:77 *454:53 0.000115013
88 *269:101 *454:34 5.9836e-05
89 *269:101 *454:41 0.000354116
90 *269:101 *454:89 0.000140259
91 *272:84 *454:89 5.7831e-05
92 *274:20 *1845:A1 0.000218493
93 *275:111 *454:34 0
94 *277:18 *454:89 2.80924e-06
95 *277:26 *454:89 1.28604e-05
96 *290:29 *1817:A1 7.88926e-05
97 *290:29 *454:12 2.22183e-05
98 *290:29 *454:14 2.29192e-05
99 *298:27 *454:12 0.000136486
100 *316:25 *454:28 5.08795e-05
101 *322:12 *1762:A1 1.38978e-05
102 *322:12 *454:22 7.23898e-05
103 *330:29 *454:141 4.96717e-05
104 *331:25 *454:28 0.000138727
105 *332:25 *454:28 0
106 *346:14 *454:34 0.000269429
107 *354:21 *454:34 0
108 *362:10 *1845:A1 0
109 *362:10 *454:53 0
110 *402:10 *454:10 0
111 *407:43 *454:141 0.000121249
112 *407:167 *454:12 8.02348e-05
113 *407:167 *454:14 0.000127263
114 *407:167 *454:16 0.000289044
115 *407:167 *454:20 0.000360895
116 *407:399 *454:53 5.94125e-05
117 *408:239 *454:53 0.000141879
118 *409:160 *454:16 4.6318e-06
119 *409:160 *454:20 0.000218327
120 *409:160 *454:22 0.000121718
121 *409:160 *454:26 3.98859e-05
122 *409:160 *454:28 0
123 *409:255 *454:16 5.20202e-05
124 *410:57 *454:28 0
125 *416:136 *454:147 2.19246e-05
126 *424:71 *454:16 0
127 *431:23 *454:102 0
128 *431:34 *454:102 0
129 *452:156 *454:147 0
*RES
1 *2112:X *454:10 48.2329 
2 *454:10 *454:12 4.37071 
3 *454:12 *454:14 1.90571 
4 *454:14 *454:16 4.01857 
5 *454:16 *454:20 6.57679 
6 *454:20 *454:22 5.60321 
7 *454:22 *454:26 2.52714 
8 *454:26 *454:28 38.8807 
9 *454:28 *454:34 26.1029 
10 *454:34 *1889:A1 23 
11 *454:34 *454:41 3.95643 
12 *454:41 *454:49 33.6043 
13 *454:49 *454:53 21.8357 
14 *454:53 *1845:A1 49.89 
15 *454:53 *1863:A1 38 
16 *454:49 *1836:A0 23.6214 
17 *454:41 *1808:A0 23 
18 *454:41 *454:89 6.02786 
19 *454:89 *1872:A0 23 
20 *454:89 *454:102 41.6414 
21 *454:102 *1827:A1 23 
22 *454:28 *1854:A0 39.0979 
23 *454:26 *1880:A0 38.6214 
24 *454:22 *454:129 22.7679 
25 *454:129 *454:141 40.8129 
26 *454:141 *454:147 32.9621 
27 *454:147 *1780:A1 23 
28 *454:129 *1771:A0 23 
29 *454:20 *1762:A1 38.3211 
30 *454:16 *1798:A1 42.4329 
31 *454:14 *1817:A1 45.4571 
32 *454:12 *1789:A0 43.8621 
33 *454:10 *1753:A0 39.0979 
*END

*D_NET *455 0.0346769
*CONN
*I *1873:A0 I *D sky130_fd_sc_hd__mux2_1
*I *1890:A1 I *D sky130_fd_sc_hd__mux2_1
*I *1754:A0 I *D sky130_fd_sc_hd__mux2_1
*I *1799:A1 I *D sky130_fd_sc_hd__mux2_1
*I *1790:A0 I *D sky130_fd_sc_hd__mux2_1
*I *1818:A1 I *D sky130_fd_sc_hd__mux2_1
*I *1881:A0 I *D sky130_fd_sc_hd__mux2_1
*I *1781:A1 I *D sky130_fd_sc_hd__mux2_1
*I *1772:A0 I *D sky130_fd_sc_hd__mux2_1
*I *1763:A1 I *D sky130_fd_sc_hd__mux2_1
*I *1837:A0 I *D sky130_fd_sc_hd__mux2_1
*I *1809:A0 I *D sky130_fd_sc_hd__mux2_1
*I *1846:A1 I *D sky130_fd_sc_hd__mux2_1
*I *1864:A1 I *D sky130_fd_sc_hd__mux2_1
*I *1828:A1 I *D sky130_fd_sc_hd__mux2_1
*I *1855:A0 I *D sky130_fd_sc_hd__mux2_1
*I *2113:X O *D sky130_fd_sc_hd__clkbuf_4
*CAP
1 *1873:A0 0.000133282
2 *1890:A1 0
3 *1754:A0 0
4 *1799:A1 0.000345047
5 *1790:A0 0.000205821
6 *1818:A1 0
7 *1881:A0 5.98189e-05
8 *1781:A1 0
9 *1772:A0 0
10 *1763:A1 0
11 *1837:A0 0
12 *1809:A0 0
13 *1846:A1 9.05517e-05
14 *1864:A1 0.000141694
15 *1828:A1 0.000441002
16 *1855:A0 0
17 *2113:X 0.000767138
18 *455:200 0.000195104
19 *455:175 0.00100437
20 *455:169 0.000776367
21 *455:160 0.00214868
22 *455:145 0.00226525
23 *455:136 0.000637896
24 *455:117 0.00116174
25 *455:110 0.000587993
26 *455:104 0.000756532
27 *455:102 0.00225871
28 *455:94 0.00224682
29 *455:73 0.000540693
30 *455:57 0.00051482
31 *455:55 0.000806697
32 *455:42 0.000653485
33 *455:31 0.000760531
34 *455:20 0.000634598
35 *455:14 0.00121467
36 *1873:A0 *456:18 0.000297049
37 *455:14 *456:10 5.21818e-05
38 *455:14 *456:18 9.84851e-05
39 *455:20 *456:18 5.55278e-05
40 *455:160 *1765:A1 0.000269781
41 *455:200 *456:18 0.000173898
42 *1629:S1 *455:136 1.01436e-05
43 *1635:S *455:94 0.000114683
44 *1754:S *455:169 2.32004e-05
45 *1765:S *455:160 2.4754e-05
46 *1772:A1 *455:117 4.79544e-05
47 *1781:S *455:136 0.000358733
48 *1790:A1 *1790:A0 0.000357
49 *1818:A0 *455:169 0.000360771
50 *1818:S *455:160 0.000315789
51 *1826:A0 *455:14 7.27182e-05
52 *1837:A1 *455:55 0
53 *1837:A1 *455:57 5.67058e-05
54 *1837:A1 *455:73 0.00014196
55 *1845:A0 *455:102 0
56 *1846:A0 *1846:A1 0.000192022
57 *1846:A0 *455:73 1.24376e-05
58 *1855:A1 *455:31 9.91798e-05
59 *1898:D *1799:A1 0.000187731
60 *2113:A *455:14 0.000315852
61 *56:8 *455:104 0.000110922
62 *71:8 *1790:A0 0
63 *71:8 *455:175 0
64 *79:10 *1799:A1 9.84851e-05
65 *86:8 *455:102 0
66 *95:10 *455:160 3.7122e-06
67 *95:10 *455:169 5.61255e-06
68 *118:8 *455:102 0
69 *126:8 *455:102 0.000169683
70 *127:8 *455:20 0
71 *135:8 *455:55 0.000789397
72 *151:8 *455:145 8.51432e-05
73 *158:8 *455:102 8.16253e-05
74 *159:8 *455:20 0.000323812
75 *170:6 *455:136 0.000264559
76 *174:14 *455:55 0
77 *174:14 *455:94 0.000183733
78 *176:12 *455:102 0
79 *176:16 *455:136 0
80 *231:45 *455:136 2.92911e-06
81 *231:94 *455:102 0
82 *231:94 *455:104 0.000176704
83 *231:94 *455:110 5.11935e-06
84 *231:94 *455:145 0
85 *253:10 *455:73 0.000136486
86 *263:86 *455:102 0.000149454
87 *263:86 *455:104 0.000214598
88 *263:86 *455:145 0.000104927
89 *264:20 *455:117 0.000139357
90 *264:20 *455:136 0.000141954
91 *265:34 *455:136 0.000429602
92 *265:55 *1881:A0 5.12254e-05
93 *265:85 *455:160 0
94 *266:71 *455:175 3.84694e-05
95 *266:73 *1790:A0 1.02387e-05
96 *269:41 *455:73 1.37232e-05
97 *272:109 *455:14 5.29672e-05
98 *272:109 *455:20 0
99 *273:54 *455:73 6.08617e-05
100 *274:31 *455:102 0
101 *274:53 *1846:A1 0.000173442
102 *274:53 *455:73 1.21972e-05
103 *274:55 *1846:A1 3.22879e-05
104 *275:80 *455:20 0
105 *278:118 *1873:A0 0.000255074
106 *299:10 *1790:A0 2.55642e-05
107 *299:10 *455:175 0.000208261
108 *308:12 *455:102 0.000152549
109 *316:14 *455:102 3.884e-05
110 *323:14 *455:145 0.000277695
111 *332:12 *455:102 0
112 *347:12 *455:20 0.000175171
113 *355:33 *455:31 6.17437e-06
114 *363:27 *455:55 0.000108477
115 *378:8 *455:102 0
116 *379:8 *455:73 3.47781e-05
117 *379:29 *455:55 0.000292846
118 *379:29 *455:73 4.08664e-05
119 *407:477 *455:20 3.90238e-05
120 *407:477 *455:31 9.503e-05
121 *407:477 *455:42 0.000125802
122 *407:477 *455:55 8.68016e-06
123 *408:154 *1828:A1 0.000272468
124 *408:178 *455:20 8.22421e-06
125 *408:384 *455:136 0.000219873
126 *409:166 *455:145 0
127 *409:166 *455:160 0
128 *409:174 *455:102 0
129 *409:176 *455:102 0
130 *409:180 *455:102 0
131 *409:192 *455:57 2.18409e-05
132 *409:192 *455:73 0.000154372
133 *409:192 *455:94 2.93845e-05
134 *416:43 *455:73 3.28876e-05
135 *426:32 *455:31 0.000167443
136 *426:32 *455:42 0.000250839
137 *426:32 *455:55 0.000192096
138 *453:14 *455:14 0.000117209
139 *454:28 *455:102 0.000990646
140 *454:28 *455:145 0.00031665
141 *454:28 *455:160 0.00021623
142 *454:34 *455:102 0.000750801
*RES
1 *2113:X *455:14 36.6921 
2 *455:14 *455:20 40.005 
3 *455:20 *1855:A0 23 
4 *455:20 *455:31 19.785 
5 *455:31 *1828:A1 46.7207 
6 *455:31 *455:42 3.31429 
7 *455:42 *1864:A1 40.0507 
8 *455:42 *455:55 27.8221 
9 *455:55 *455:57 1.09786 
10 *455:57 *455:73 38.5757 
11 *455:73 *1846:A1 26.9564 
12 *455:73 *1809:A0 23 
13 *455:57 *1837:A0 23 
14 *455:55 *455:94 19.9093 
15 *455:94 *455:102 44.3182 
16 *455:102 *455:104 7.89214 
17 *455:104 *455:110 15.9425 
18 *455:110 *1763:A1 23 
19 *455:110 *455:117 6.815 
20 *455:117 *1772:A0 23 
21 *455:117 *455:136 44.21 
22 *455:136 *1781:A1 23 
23 *455:104 *455:145 10.4504 
24 *455:145 *1881:A0 39.0979 
25 *455:145 *455:160 49.51 
26 *455:160 *1818:A1 23 
27 *455:160 *455:169 6.35929 
28 *455:169 *455:175 23.4514 
29 *455:175 *1790:A0 43.4271 
30 *455:175 *1799:A1 44.3386 
31 *455:169 *1754:A0 23 
32 *455:14 *455:200 2.05071 
33 *455:200 *1890:A1 23 
34 *455:200 *1873:A0 29.3593 
*END

*D_NET *456 0.0385168
*CONN
*I *1874:A0 I *D sky130_fd_sc_hd__mux2_1
*I *1829:A1 I *D sky130_fd_sc_hd__mux2_1
*I *1856:A0 I *D sky130_fd_sc_hd__mux2_1
*I *1865:A1 I *D sky130_fd_sc_hd__mux2_1
*I *1782:A1 I *D sky130_fd_sc_hd__mux2_1
*I *1882:A0 I *D sky130_fd_sc_hd__mux2_1
*I *1773:A0 I *D sky130_fd_sc_hd__mux2_1
*I *1764:A1 I *D sky130_fd_sc_hd__mux2_1
*I *1800:A1 I *D sky130_fd_sc_hd__mux2_1
*I *1791:A0 I *D sky130_fd_sc_hd__mux2_1
*I *1819:A1 I *D sky130_fd_sc_hd__mux2_1
*I *1755:A0 I *D sky130_fd_sc_hd__mux2_1
*I *1838:A0 I *D sky130_fd_sc_hd__mux2_1
*I *1847:A1 I *D sky130_fd_sc_hd__mux2_1
*I *1810:A0 I *D sky130_fd_sc_hd__mux2_1
*I *1891:A1 I *D sky130_fd_sc_hd__mux2_1
*I *2114:X O *D sky130_fd_sc_hd__clkbuf_4
*CAP
1 *1874:A0 3.77617e-05
2 *1829:A1 0
3 *1856:A0 0
4 *1865:A1 0.000337184
5 *1782:A1 0
6 *1882:A0 0
7 *1773:A0 0.000518308
8 *1764:A1 0
9 *1800:A1 0
10 *1791:A0 5.32913e-05
11 *1819:A1 0
12 *1755:A0 0
13 *1838:A0 0.000389225
14 *1847:A1 6.94194e-05
15 *1810:A0 8.18661e-05
16 *1891:A1 5.06004e-05
17 *2114:X 0.00124501
18 *456:210 0.000339049
19 *456:202 0.000860238
20 *456:195 0.000694798
21 *456:177 0.000530444
22 *456:134 0.000308616
23 *456:120 0.000738219
24 *456:108 0.00237769
25 *456:94 0.00138415
26 *456:92 0.000827443
27 *456:86 0.000778494
28 *456:84 0.00232928
29 *456:63 0.00180068
30 *456:52 0.000296132
31 *456:41 0.000819626
32 *456:35 0.00129688
33 *456:22 0.000768274
34 *456:18 0.00171051
35 *456:10 0.00239315
36 *1637:A1 *456:120 4.95442e-05
37 *1744:S1 *456:84 0
38 *1745:A0 *456:84 0.000185104
39 *1755:A1 *456:120 0.000340061
40 *1755:S *456:120 4.6595e-05
41 *1764:A0 *456:108 5.3304e-05
42 *1791:A1 *1791:A0 0.000447976
43 *1791:A1 *456:134 0.000128723
44 *1800:S *456:134 5.70419e-05
45 *1819:A0 *456:134 0.000315386
46 *1819:S *456:108 0.00014703
47 *1826:A0 *456:10 2.9938e-05
48 *1836:A1 *456:84 0.000179823
49 *1838:S *1838:A0 0.000153236
50 *1845:A1 *456:84 0
51 *1847:S *456:52 2.47015e-05
52 *1865:A0 *1865:A1 5.67058e-05
53 *1873:A0 *456:18 0.000297049
54 *1873:A1 *456:18 0.000187129
55 *1873:S *1874:A0 1.39431e-05
56 *1873:S *456:18 0.00024362
57 *1873:S *456:195 9.93521e-05
58 *1873:S *456:202 0.000196001
59 *1874:A1 *456:210 0.000108811
60 *1882:S *456:86 4.79641e-05
61 *1882:S *456:92 6.17437e-06
62 *1891:A0 *1891:A1 2.30292e-05
63 *1891:S *1891:A1 5.50106e-05
64 *1891:S *456:22 0.000342403
65 *1940:D *456:108 0.000222729
66 *1951:CLK *456:177 5.3304e-05
67 *2109:A *456:18 0
68 *2111:A *456:10 3.71369e-05
69 *88:10 *456:41 0.000380342
70 *96:10 *456:120 0.000408129
71 *104:8 *456:210 3.5664e-05
72 *144:10 *456:210 0
73 *159:8 *456:18 1.01436e-05
74 *160:8 *456:22 0.00010351
75 *176:12 *456:84 0.00116357
76 *183:10 *456:84 0
77 *183:10 *456:177 0.000482051
78 *231:94 *1773:A0 0.000132172
79 *231:94 *456:92 0.000160727
80 *263:44 *456:108 0.000897115
81 *264:30 *1773:A0 0.000259087
82 *266:83 *1791:A0 0.000447976
83 *266:83 *456:134 5.67058e-05
84 *267:32 *456:108 4.82363e-05
85 *267:32 *456:134 0.000411419
86 *269:26 *1865:A1 0.000173057
87 *269:26 *456:41 0.000177899
88 *269:41 *1847:A1 9.84794e-05
89 *269:77 *456:84 0
90 *272:109 *456:10 9.91798e-05
91 *272:109 *456:18 0
92 *273:52 *1838:A0 0.000178383
93 *274:31 *456:52 2.36844e-05
94 *274:31 *456:63 3.14377e-05
95 *274:31 *456:84 3.2203e-05
96 *274:49 *456:52 4.40101e-05
97 *278:118 *456:18 9.24795e-06
98 *278:118 *456:22 0.000225275
99 *284:10 *456:210 0.000114083
100 *300:27 *456:134 0.000232389
101 *313:8 *456:108 0.0002246
102 *321:12 *456:108 0.000527118
103 *324:8 *1773:A0 1.58805e-05
104 *324:8 *456:92 4.08537e-05
105 *340:8 *456:210 2.20111e-05
106 *356:14 *456:195 2.30292e-05
107 *356:14 *456:202 2.30292e-05
108 *362:10 *456:84 0.000169674
109 *370:10 *456:84 1.22803e-05
110 *380:12 *456:41 0.000141879
111 *380:12 *456:52 0.000247687
112 *407:501 *456:41 0
113 *408:239 *456:84 0
114 *408:322 *456:84 0.000441394
115 *408:322 *456:177 0
116 *408:443 *456:120 1.6873e-05
117 *409:172 *1773:A0 0.000166522
118 *409:174 *1773:A0 0.000283642
119 *409:174 *456:92 0.000564498
120 *426:98 *456:41 0
121 *426:98 *456:52 0
122 *429:46 *456:22 7.75329e-06
123 *429:46 *456:35 0.000192859
124 *451:8 *456:18 6.07611e-06
125 *453:8 *456:10 0.000144494
126 *453:14 *456:10 0.00112919
127 *454:49 *456:84 0.000114083
128 *455:14 *456:10 5.21818e-05
129 *455:14 *456:18 9.84851e-05
130 *455:20 *456:18 5.55278e-05
131 *455:200 *456:18 0.000173898
*RES
1 *2114:X *456:10 47.1321 
2 *456:10 *456:18 49.6786 
3 *456:18 *456:22 24.3007 
4 *456:22 *1891:A1 39.0979 
5 *456:22 *456:35 22.8921 
6 *456:35 *456:41 26.8693 
7 *456:41 *1810:A0 39.0979 
8 *456:41 *456:52 4.01857 
9 *456:52 *1847:A1 39.0979 
10 *456:52 *456:63 1.55357 
11 *456:63 *1838:A0 46.2443 
12 *456:63 *456:84 48.3707 
13 *456:84 *456:86 7.76786 
14 *456:86 *456:92 24.1143 
15 *456:92 *456:94 15 
16 *456:94 *456:108 26.8457 
17 *456:108 *456:120 46.0121 
18 *456:120 *1755:A0 23 
19 *456:108 *1819:A1 23 
20 *456:108 *456:134 10.6471 
21 *456:134 *1791:A0 27.9093 
22 *456:134 *1800:A1 23 
23 *456:94 *1764:A1 23 
24 *456:92 *1773:A0 49.5171 
25 *456:86 *1882:A0 23 
26 *456:84 *456:177 39.6321 
27 *456:177 *1782:A1 23 
28 *456:35 *1865:A1 29.0279 
29 *456:18 *456:195 3.48 
30 *456:195 *1856:A0 23 
31 *456:195 *456:202 7.76786 
32 *456:202 *456:210 37.2293 
33 *456:210 *1829:A1 23 
34 *456:202 *1874:A0 23.6214 
*END

*D_NET *457 0.0279534
*CONN
*I *1820:A1 I *D sky130_fd_sc_hd__mux2_1
*I *1756:A0 I *D sky130_fd_sc_hd__mux2_1
*I *1801:A1 I *D sky130_fd_sc_hd__mux2_1
*I *1792:A0 I *D sky130_fd_sc_hd__mux2_1
*I *1783:A1 I *D sky130_fd_sc_hd__mux2_1
*I *1774:A0 I *D sky130_fd_sc_hd__mux2_1
*I *1765:A1 I *D sky130_fd_sc_hd__mux2_1
*I *1875:A0 I *D sky130_fd_sc_hd__mux2_1
*I *1839:A0 I *D sky130_fd_sc_hd__mux2_1
*I *1811:A0 I *D sky130_fd_sc_hd__mux2_1
*I *1848:A1 I *D sky130_fd_sc_hd__mux2_1
*I *1892:A1 I *D sky130_fd_sc_hd__mux2_1
*I *1830:A1 I *D sky130_fd_sc_hd__mux2_1
*I *1866:A1 I *D sky130_fd_sc_hd__mux2_1
*I *1857:A0 I *D sky130_fd_sc_hd__mux2_1
*I *1883:A0 I *D sky130_fd_sc_hd__mux2_1
*I *2115:X O *D sky130_fd_sc_hd__clkbuf_4
*CAP
1 *1820:A1 0.000392612
2 *1756:A0 0
3 *1801:A1 0
4 *1792:A0 0.000170655
5 *1783:A1 0.000171415
6 *1774:A0 0
7 *1765:A1 0.00011531
8 *1875:A0 0.000320014
9 *1839:A0 0
10 *1811:A0 0
11 *1848:A1 0.000232467
12 *1892:A1 5.06004e-05
13 *1830:A1 0.000440569
14 *1866:A1 0.000503693
15 *1857:A0 0
16 *1883:A0 0
17 *2115:X 0.00164899
18 *457:178 0.000196425
19 *457:172 0.00134873
20 *457:138 0.000636616
21 *457:95 0.000849828
22 *457:85 0.0010218
23 *457:52 0.00107407
24 *457:50 0.000346708
25 *457:39 0.000411133
26 *457:33 0.00076122
27 *457:31 0.00228343
28 *457:29 0.00233847
29 *457:25 0.000906543
30 *457:18 0.00039069
31 *457:12 0.000650204
32 *457:10 0.000242387
33 *457:8 0.000843573
34 *457:6 0.00164899
35 *1647:A1 *457:178 0
36 *1650:A2 *1848:A1 1.14876e-05
37 *1650:A2 *457:95 1.32939e-05
38 *1650:A3 *457:95 2.61526e-05
39 *1756:A1 *457:178 0
40 *1765:S *1765:A1 5.50106e-05
41 *1783:A0 *1783:A1 0.000423417
42 *1783:A0 *457:138 5.3304e-05
43 *1811:A1 *457:95 4.93223e-05
44 *1819:S *457:31 0
45 *1830:A0 *1830:A1 0.000522803
46 *1839:S *457:85 0.000144494
47 *1848:A0 *1848:A1 0.000103248
48 *1857:A1 *457:50 1.39317e-05
49 *1857:S *457:50 3.14274e-05
50 *1866:A0 *1866:A1 9.7231e-05
51 *1875:A1 *1875:A0 0.000392386
52 *1892:A0 *1892:A1 2.30292e-05
53 *1892:S *1892:A1 5.50106e-05
54 *1892:S *457:52 0.000143401
55 *1900:D *457:172 6.00679e-05
56 *1944:CLK *457:12 0
57 *1944:CLK *457:18 0
58 *1968:D *457:6 1.64354e-05
59 *2066:D *1875:A0 5.3304e-05
60 *2096:A *1866:A1 0.000137651
61 *41:8 *457:178 0
62 *49:8 *457:29 0.000114083
63 *50:8 *457:31 0.000196188
64 *57:8 *457:138 0.000577448
65 *73:8 *457:10 5.21024e-05
66 *73:8 *457:12 9.88678e-05
67 *73:8 *457:172 0.000112169
68 *93:8 *457:31 0.000225275
69 *129:10 *457:39 1.01436e-05
70 *129:10 *457:50 0
71 *129:10 *457:52 0
72 *149:10 *457:31 5.36457e-05
73 *154:8 *457:31 0.000169683
74 *161:8 *457:33 0.000167452
75 *161:8 *457:39 0.000303269
76 *161:8 *457:50 2.54046e-05
77 *164:34 *1783:A1 0.000115
78 *189:6 *457:39 8.20126e-06
79 *189:6 *457:50 5.14746e-06
80 *231:65 *457:31 0
81 *231:80 *457:18 0
82 *231:80 *457:29 0.000100262
83 *231:80 *457:31 0
84 *231:80 *457:138 5.50049e-05
85 *262:81 *1875:A0 0.000260681
86 *264:95 *1783:A1 5.29672e-05
87 *269:101 *1830:A1 5.26324e-05
88 *270:47 *457:31 0
89 *270:66 *457:18 0.000194327
90 *270:127 *1820:A1 5.90675e-06
91 *275:131 *457:50 2.22183e-05
92 *275:131 *457:52 7.75329e-06
93 *276:86 *1866:A1 0.000181794
94 *277:60 *1875:A0 0.00014196
95 *278:41 *1866:A1 0.000167452
96 *278:41 *457:52 7.8712e-05
97 *278:47 *1866:A1 0.000185434
98 *301:10 *457:178 0
99 *317:8 *1783:A1 5.3304e-05
100 *317:8 *457:138 0.000228903
101 *326:12 *457:31 0.000154385
102 *333:10 *457:29 0.000218962
103 *373:8 *457:95 3.70187e-05
104 *373:35 *457:85 4.44329e-05
105 *373:35 *457:95 0.000427662
106 *381:8 *457:95 0
107 *389:8 *457:95 1.7992e-05
108 *407:355 *457:95 0
109 *420:131 *457:6 8.93451e-05
110 *420:131 *457:10 0
111 *420:131 *457:12 0
112 *420:131 *457:172 0
113 *436:36 *457:18 7.03766e-05
114 *436:48 *457:18 8.11411e-05
115 *436:48 *457:29 0
116 *436:48 *457:31 0
117 *436:58 *457:31 9.53554e-05
118 *453:90 *1866:A1 0
119 *453:90 *457:31 0
120 *453:90 *457:33 0
121 *453:90 *457:39 0
122 *453:90 *457:52 0
123 *453:109 *457:31 0
124 *453:116 *457:31 0
125 *453:125 *457:31 0
126 *453:164 *457:31 0
127 *455:160 *1765:A1 0.000269781
*RES
1 *2115:X *457:6 44.5843 
2 *457:6 *457:8 15 
3 *457:8 *457:10 1.55357 
4 *457:10 *457:12 3.66643 
5 *457:12 *457:18 22.2293 
6 *457:18 *1883:A0 23 
7 *457:18 *457:25 1.09786 
8 *457:25 *457:29 23.2443 
9 *457:29 *457:31 36.7679 
10 *457:31 *457:33 2.61 
11 *457:33 *457:39 20.1164 
12 *457:39 *1857:A0 23 
13 *457:39 *457:50 18.3557 
14 *457:50 *457:52 3.31429 
15 *457:52 *1866:A1 49.455 
16 *457:52 *1830:A1 46.2443 
17 *457:50 *1892:A1 39.0979 
18 *457:33 *457:85 22.7679 
19 *457:85 *457:95 42.0557 
20 *457:95 *1848:A1 27.5986 
21 *457:95 *1811:A0 23 
22 *457:85 *1839:A0 23 
23 *457:31 *1875:A0 47.1971 
24 *457:29 *1765:A1 41.0036 
25 *457:25 *457:138 11.6 
26 *457:138 *1774:A0 23 
27 *457:138 *1783:A1 28.3857 
28 *457:12 *1792:A0 41.0036 
29 *457:10 *1801:A1 38 
30 *457:8 *457:172 26.2064 
31 *457:172 *457:178 32.9621 
32 *457:178 *1756:A0 23 
33 *457:172 *1820:A1 29.38 
*END

*D_NET *458 0.0128799
*CONN
*I *1697:A I *D sky130_fd_sc_hd__xnor2_1
*I *1698:A I *D sky130_fd_sc_hd__xnor2_1
*I *1679:B2 I *D sky130_fd_sc_hd__a221o_1
*I *1678:B2 I *D sky130_fd_sc_hd__o221ai_2
*I *1929:D I *D sky130_fd_sc_hd__dfrtp_1
*I *2031:Q O *D sky130_fd_sc_hd__dfrtp_4
*CAP
1 *1697:A 0
2 *1698:A 0.000309424
3 *1679:B2 1.24338e-05
4 *1678:B2 0
5 *1929:D 0.000751478
6 *2031:Q 0.000289072
7 *458:80 0.000612026
8 *458:65 0.00127232
9 *458:34 0.00193828
10 *458:18 0.00128641
11 *458:12 0.00085791
12 *458:10 0.00138581
13 *1698:A *491:10 0.000180812
14 *1698:A *496:10 0.000153145
15 *1929:D *1924:D 1.32289e-05
16 *458:12 *462:12 0
17 *458:12 *482:10 5.21024e-05
18 *458:12 *487:10 0
19 *458:18 *483:10 2.49733e-05
20 *458:34 *1674:B 5.50049e-05
21 *458:34 *1903:D 0.000440928
22 *458:34 *462:29 0.000181131
23 *458:34 *462:37 0
24 *458:34 *471:10 0.000141869
25 *458:34 *475:12 0.000143178
26 *458:34 *480:10 0.000114083
27 *458:80 *492:10 0.000355552
28 *1678:A2 *458:34 0
29 *1678:C1 *458:34 0.000139357
30 *1904:RESET_B *458:34 6.6869e-05
31 *1908:RESET_B *458:34 0.000161473
32 *1924:CLK *1929:D 4.67488e-05
33 *1999:RESET_B *1929:D 0.000120847
34 *167:6 *458:18 9.84851e-05
35 *167:6 *458:34 8.25584e-05
36 *169:21 *458:12 1.19796e-05
37 *169:21 *458:18 6.03737e-05
38 *210:10 *458:18 0.000141879
39 *211:10 *458:34 0.000346234
40 *212:10 *458:34 0.000188849
41 *418:110 *458:80 0
42 *438:166 *458:34 0
43 *446:12 *458:34 0.000117352
44 *446:14 *458:34 0.000155417
45 *446:49 *458:34 0.000183879
46 *446:59 *458:34 0.000246757
47 *446:135 *458:80 0.000139647
*RES
1 *2031:Q *458:10 42.785 
2 *458:10 *458:12 14.5829 
3 *458:12 *458:18 18.7079 
4 *458:18 *458:34 45.9057 
5 *458:34 *1929:D 49.6207 
6 *458:18 *1678:B2 23 
7 *458:12 *1679:B2 38.1502 
8 *458:10 *458:65 21.3386 
9 *458:65 *1698:A 30.2914 
10 *458:65 *458:80 43.5471 
11 *458:80 *1697:A 23 
*END

*D_NET *459 0.00799643
*CONN
*I *1625:A I *D sky130_fd_sc_hd__inv_2
*I *1675:B I *D sky130_fd_sc_hd__nand2b_1
*I *1925:D I *D sky130_fd_sc_hd__dfrtp_1
*I *2032:Q O *D sky130_fd_sc_hd__dfrtp_1
*CAP
1 *1625:A 7.11586e-05
2 *1675:B 2.46388e-05
3 *1925:D 7.18031e-05
4 *2032:Q 0.000111771
5 *459:29 0.000698826
6 *459:16 0.00241783
7 *459:10 0.00306082
8 *1625:A *1675:A_N 4.86669e-05
9 *1675:B *1675:A_N 1.07899e-05
10 *459:10 *1902:D 0
11 *459:10 *1905:D 5.50106e-05
12 *459:10 *481:8 8.85189e-05
13 *459:16 *1902:D 0
14 *459:16 *460:10 0
15 *459:16 *460:14 0
16 *459:16 *484:10 0
17 *459:16 *497:10 0
18 *459:16 *504:10 0
19 *1706:B1 *459:16 9.35856e-05
20 *1929:RESET_B *459:16 3.04021e-05
21 *1987:D *459:16 0
22 *1994:RESET_B *459:16 0.000140671
23 *1995:RESET_B *459:16 8.16356e-05
24 *1999:RESET_B *459:16 0
25 *5:9 *459:10 6.02277e-06
26 *5:9 *459:16 0.00040936
27 *211:10 *1625:A 5.3304e-05
28 *211:10 *459:29 0.000137651
29 *411:14 *459:16 0
30 *412:10 *459:16 0
31 *412:256 *459:16 0
32 *413:58 *459:16 0
33 *413:64 *459:16 0.000128524
34 *432:41 *1925:D 7.88828e-05
35 *438:117 *459:16 0.000144455
36 *446:10 *1625:A 1.03836e-05
37 *446:10 *1675:B 7.80291e-06
38 *446:10 *459:29 1.39158e-05
*RES
1 *2032:Q *459:10 40.175 
2 *459:10 *459:16 49.8593 
3 *459:16 *1925:D 39.5743 
4 *459:10 *459:29 24.6736 
5 *459:29 *1675:B 23.6473 
6 *459:29 *1625:A 24.595 
*END

*D_NET *460 0.00604198
*CONN
*I *1676:B I *D sky130_fd_sc_hd__xor2_1
*I *1926:D I *D sky130_fd_sc_hd__dfrtp_1
*I *2033:Q O *D sky130_fd_sc_hd__dfrtp_1
*CAP
1 *1676:B 0
2 *1926:D 3.16967e-05
3 *2033:Q 0.000205771
4 *460:14 0.00193825
5 *460:10 0.00235359
6 *460:8 0.000652807
7 *460:10 *1902:D 0.000361011
8 *460:10 *461:20 0
9 *460:10 *477:49 0
10 *460:14 *461:20 0
11 *460:14 *484:10 0.00035793
12 *1902:CLK *460:8 3.22879e-05
13 *1924:CLK *460:14 0
14 *1926:CLK *1926:D 2.93747e-05
15 *1927:CLK *460:14 0
16 *1929:RESET_B *460:14 0
17 *2033:RESET_B *460:8 7.92721e-05
18 *413:58 *460:14 0
19 *423:93 *460:14 0
20 *423:95 *460:14 0
21 *432:56 *460:14 0
22 *432:67 *460:14 0
23 *438:117 *460:14 0
24 *459:16 *460:10 0
25 *459:16 *460:14 0
*RES
1 *2033:Q *460:8 41.0036 
2 *460:8 *460:10 10.3571 
3 *460:10 *460:14 49.655 
4 *460:14 *1926:D 23.6214 
5 *460:10 *1676:B 38 
*END

*D_NET *461 0.00769477
*CONN
*I *1626:A I *D sky130_fd_sc_hd__inv_2
*I *1927:D I *D sky130_fd_sc_hd__dfrtp_1
*I *2034:Q O *D sky130_fd_sc_hd__dfrtp_1
*CAP
1 *1626:A 0
2 *1927:D 1.80505e-05
3 *2034:Q 0.000498018
4 *461:20 0.00132948
5 *461:14 0.00135565
6 *461:10 0.000542234
7 *461:10 *477:49 0.000338001
8 *461:20 *1669:A 0.000400886
9 *461:20 *477:49 0.00172048
10 *1911:RESET_B *461:10 3.47776e-05
11 *1924:CLK *461:20 0.000391337
12 *1927:CLK *1927:D 2.93747e-05
13 *2034:RESET_B *461:10 0.000139352
14 *167:6 *461:14 5.50049e-05
15 *206:8 *461:20 0
16 *418:135 *461:14 2.98648e-05
17 *418:135 *461:20 1.59094e-05
18 *423:93 *461:20 0.0002499
19 *423:95 *461:20 0.000246748
20 *438:117 *1927:D 5.50049e-05
21 *446:59 *461:10 9.63918e-05
22 *446:183 *461:10 0.000148319
23 *460:10 *461:20 0
24 *460:14 *461:20 0
*RES
1 *2034:Q *461:10 49.02 
2 *461:10 *461:14 16.0979 
3 *461:14 *461:20 49.22 
4 *461:20 *1927:D 38.6214 
5 *461:14 *1626:A 23 
*END

*D_NET *462 0.00547773
*CONN
*I *1627:A I *D sky130_fd_sc_hd__inv_2
*I *1928:D I *D sky130_fd_sc_hd__dfrtp_1
*I *1674:B I *D sky130_fd_sc_hd__and2b_1
*I *2035:Q O *D sky130_fd_sc_hd__dfrtp_1
*CAP
1 *1627:A 1.80505e-05
2 *1928:D 0
3 *1674:B 2.86541e-05
4 *2035:Q 9.01176e-05
5 *462:37 0.00104724
6 *462:29 0.0014078
7 *462:12 0.00108838
8 *462:8 0.000807333
9 *462:12 *482:10 5.45887e-05
10 *462:12 *483:10 8.33724e-05
11 *462:29 *1675:A_N 0.000137651
12 *462:29 *1677:A1 5.59479e-05
13 *462:29 *483:10 6.8171e-05
14 *462:37 *1675:A_N 4.6318e-06
15 *462:37 *1903:D 0
16 *462:37 *471:10 2.65727e-05
17 *462:37 *485:8 0
18 *1904:RESET_B *462:37 3.98859e-05
19 *1911:RESET_B *462:12 0
20 *166:14 *1627:A 5.50049e-05
21 *166:14 *462:29 0.00014976
22 *210:10 *462:12 1.94522e-05
23 *211:10 *462:12 2.96051e-05
24 *212:10 *462:37 0
25 *214:8 *462:29 0
26 *435:10 *462:29 0
27 *446:10 *1627:A 2.93747e-05
28 *446:59 *462:12 0
29 *446:131 *462:12 0
30 *446:183 *462:12 0
31 *458:12 *462:12 0
32 *458:34 *1674:B 5.50049e-05
33 *458:34 *462:29 0.000181131
34 *458:34 *462:37 0
*RES
1 *2035:Q *462:8 39.0979 
2 *462:8 *462:12 28.8786 
3 *462:12 *1674:B 23.6214 
4 *462:12 *462:29 22.8921 
5 *462:29 *462:37 31.1157 
6 *462:37 *1928:D 23 
7 *462:29 *1627:A 38.6214 
*END

*D_NET *463 0.00136587
*CONN
*I *1664:B I *D sky130_fd_sc_hd__xor2_1
*I *1920:Q O *D sky130_fd_sc_hd__dfrtp_1
*CAP
1 *1664:B 0
2 *1920:Q 0.000633788
3 *463:10 0.000633788
4 *1920:RESET_B *463:10 1.19087e-05
5 *1925:RESET_B *463:10 6.25528e-05
6 *201:10 *463:10 0
7 *432:45 *463:10 0
8 *438:12 *463:10 2.38288e-05
*RES
1 *1920:Q *463:10 47.1971 
2 *463:10 *1664:B 38 
*END

*D_NET *464 0.000360376
*CONN
*I *1663:A I *D sky130_fd_sc_hd__xnor2_1
*I *1921:Q O *D sky130_fd_sc_hd__dfrtp_1
*CAP
1 *1663:A 0
2 *1921:Q 4.64846e-05
3 *464:8 4.64846e-05
4 *209:10 *464:8 0.00014411
5 *438:55 *464:8 0.000114083
6 *438:87 *464:8 9.21347e-06
*RES
1 *1921:Q *464:8 39.9057 
2 *464:8 *1663:A 38 
*END

*D_NET *465 0.000442428
*CONN
*I *1662:A I *D sky130_fd_sc_hd__xnor2_1
*I *1922:Q O *D sky130_fd_sc_hd__dfrtp_1
*CAP
1 *1662:A 0
2 *1922:Q 0.000195422
3 *465:10 0.000195422
4 *1672:C1 *465:10 5.15848e-05
*RES
1 *1922:Q *465:10 41.3557 
2 *465:10 *1662:A 38 
*END

*D_NET *466 0.00112653
*CONN
*I *1661:B I *D sky130_fd_sc_hd__xor2_1
*I *1923:Q O *D sky130_fd_sc_hd__dfrtp_1
*CAP
1 *1661:B 0
2 *1923:Q 0.000493443
3 *466:10 0.000493443
4 *466:10 *467:10 0.000139647
5 rdata[5] *466:10 0
6 *438:155 *466:10 0
7 *438:166 *466:10 0
8 *441:10 *466:10 0
*RES
1 *1923:Q *466:10 46.99 
2 *466:10 *1661:B 38 
*END

*D_NET *467 0.000886057
*CONN
*I *1661:A I *D sky130_fd_sc_hd__xor2_1
*I *1669:B I *D sky130_fd_sc_hd__xnor2_1
*I *1924:Q O *D sky130_fd_sc_hd__dfrtp_1
*CAP
1 *1661:A 0
2 *1669:B 0.000152589
3 *1924:Q 0.000144816
4 *467:12 0.000152589
5 *467:10 0.000144816
6 *2124:A *1669:B 0.000151601
7 *438:155 *467:10 0
8 *466:10 *467:10 0.000139647
*RES
1 *1924:Q *467:10 40.5271 
2 *467:10 *467:12 15 
3 *467:12 *1669:B 26.5007 
4 *467:12 *1661:A 23 
*END

*D_NET *468 0.000339256
*CONN
*I *1920:D I *D sky130_fd_sc_hd__dfrtp_1
*I *1925:Q O *D sky130_fd_sc_hd__dfrtp_1
*CAP
1 *1920:D 0.000117159
2 *1925:Q 0.000117159
3 *1925:RESET_B *1920:D 4.99329e-05
4 *432:41 *1920:D 5.50049e-05
*RES
1 *1925:Q *1920:D 48.6929 
*END

*D_NET *469 0.000964706
*CONN
*I *1921:D I *D sky130_fd_sc_hd__dfrtp_1
*I *1926:Q O *D sky130_fd_sc_hd__dfrtp_1
*CAP
1 *1921:D 0
2 *1926:Q 0.000369672
3 *469:10 0.000369672
4 *1926:RESET_B *469:10 0.000137039
5 *1996:RESET_B *469:10 3.02261e-05
6 *432:56 *469:10 5.80963e-05
*RES
1 *1926:Q *469:10 43.9864 
2 *469:10 *1921:D 38 
*END

*D_NET *470 0.00113246
*CONN
*I *1922:D I *D sky130_fd_sc_hd__dfrtp_1
*I *1927:Q O *D sky130_fd_sc_hd__dfrtp_1
*CAP
1 *1922:D 3.78039e-05
2 *1927:Q 0.000387541
3 *470:10 0.000425345
4 *1927:CLK *470:10 2.66127e-05
5 *1927:RESET_B *470:10 2.56078e-05
6 *165:55 *470:10 0
7 *199:10 *470:10 2.64616e-05
8 *438:103 *470:10 4.5051e-05
9 *438:117 *470:10 0.00015804
*RES
1 *1927:Q *470:10 46.4721 
2 *470:10 *1922:D 38.6214 
*END

*D_NET *471 0.00134146
*CONN
*I *1923:D I *D sky130_fd_sc_hd__dfrtp_1
*I *1928:Q O *D sky130_fd_sc_hd__dfrtp_1
*CAP
1 *1923:D 0
2 *1928:Q 0.000514456
3 *471:10 0.000514456
4 *1908:RESET_B *471:10 0.00014411
5 *458:34 *471:10 0.000141869
6 *462:37 *471:10 2.65727e-05
*RES
1 *1928:Q *471:10 45.7679 
2 *471:10 *1923:D 38 
*END

*D_NET *472 0.000415843
*CONN
*I *1924:D I *D sky130_fd_sc_hd__dfrtp_1
*I *1929:Q O *D sky130_fd_sc_hd__dfrtp_1
*CAP
1 *1924:D 0.000193353
2 *1929:Q 0.000193353
3 *1924:CLK *1924:D 1.59094e-05
4 *1929:D *1924:D 1.32289e-05
*RES
1 *1929:Q *1924:D 48.5479 
*END

*D_NET *473 0.00101256
*CONN
*I *1907:D I *D sky130_fd_sc_hd__dfrtp_1
*I *1999:Q O *D sky130_fd_sc_hd__dfrtp_1
*CAP
1 *1907:D 0
2 *1999:Q 0.000286824
3 *473:10 0.000286824
4 *473:10 *476:14 0.000332366
5 *423:78 *473:10 0.00010655
*RES
1 *1999:Q *473:10 44.4214 
2 *473:10 *1907:D 38 
*END

*D_NET *474 0.002448
*CONN
*I *1908:D I *D sky130_fd_sc_hd__dfrtp_1
*I *2000:Q O *D sky130_fd_sc_hd__dfrtp_1
*CAP
1 *1908:D 0
2 *2000:Q 0.000224838
3 *474:12 0.000744141
4 *474:8 0.000968979
5 *474:12 *476:14 6.08043e-05
6 *474:12 *500:10 0
7 *474:12 *502:16 0.000323831
8 *474:12 *504:10 0
9 *1997:CLK *474:12 0
10 *1999:RESET_B *474:12 0
11 *423:33 *474:12 0
12 *450:240 *474:8 0.000125404
13 *450:240 *474:12 0
*RES
1 *2000:Q *474:8 41.48 
2 *474:8 *474:12 27.8221 
3 *474:12 *1908:D 23 
*END

*D_NET *475 0.00370907
*CONN
*I *1909:D I *D sky130_fd_sc_hd__dfrtp_1
*I *2001:Q O *D sky130_fd_sc_hd__dfrtp_1
*CAP
1 *1909:D 0
2 *2001:Q 0.000359051
3 *475:12 0.000542963
4 *475:8 0.000902013
5 *475:8 *1669:A 7.88926e-05
6 *475:12 *1669:A 0.000107732
7 *475:12 *477:49 7.76364e-06
8 *1908:RESET_B *475:12 0.000438165
9 *1912:CLK *475:12 0.000234028
10 *2124:A *475:8 2.80203e-05
11 *418:139 *475:12 0.000197479
12 *418:141 *475:12 0.000408138
13 *438:166 *475:12 0
14 *446:14 *475:12 0.000240695
15 *447:16 *475:8 2.095e-05
16 *458:34 *475:12 0.000143178
*RES
1 *2001:Q *475:8 42.9093 
2 *475:8 *475:12 30.9914 
3 *475:12 *1909:D 23 
*END

*D_NET *476 0.00316547
*CONN
*I *1910:D I *D sky130_fd_sc_hd__dfrtp_1
*I *2002:Q O *D sky130_fd_sc_hd__dfrtp_1
*CAP
1 *1910:D 0
2 *2002:Q 6.52773e-05
3 *476:14 0.00100569
4 *476:8 0.00107096
5 *476:14 *502:16 0.000307888
6 *1907:CLK *476:14 0
7 *1998:RESET_B *476:14 0
8 *1999:RESET_B *476:14 0
9 *2002:RESET_B *476:8 0.00010018
10 *27:12 *476:14 0.000114074
11 *231:159 *476:14 6.08751e-05
12 *418:22 *476:14 0
13 *423:33 *476:14 4.73585e-05
14 *473:10 *476:14 0.000332366
15 *474:12 *476:14 6.08043e-05
*RES
1 *2002:Q *476:8 39.0979 
2 *476:8 *476:14 37.2471 
3 *476:14 *1910:D 23 
*END

*D_NET *477 0.0120484
*CONN
*I *1911:D I *D sky130_fd_sc_hd__dfrtp_1
*I *1669:A I *D sky130_fd_sc_hd__xnor2_1
*I *1714:A I *D sky130_fd_sc_hd__xnor2_1
*I *1715:A I *D sky130_fd_sc_hd__xor2_1
*I *1998:Q O *D sky130_fd_sc_hd__dfrtp_2
*CAP
1 *1911:D 0
2 *1669:A 0.000360344
3 *1714:A 0
4 *1715:A 9.62076e-05
5 *1998:Q 0
6 *477:49 0.000960512
7 *477:32 0.00190235
8 *477:23 0.000337307
9 *477:10 0.000981162
10 *477:4 0.00112914
11 *477:10 *505:10 6.37697e-05
12 *477:49 *1902:D 0
13 *477:49 *486:12 1.94522e-05
14 *1912:CLK *477:49 0.000109525
15 *1912:D *477:10 4.9662e-05
16 *1912:D *477:32 0.000672526
17 *2124:A *1669:A 0.000279828
18 *163:114 *477:23 0.000435022
19 *231:12 *477:23 0.000836169
20 *231:151 *477:10 0.000269555
21 *265:101 *477:23 0
22 *418:135 *477:49 0.000275878
23 *418:137 *477:49 9.52677e-05
24 *418:139 *477:49 0.000123326
25 *418:141 *477:49 0.000206313
26 *446:59 *477:49 0
27 *446:121 *477:49 0.000186697
28 *446:131 *477:49 4.6318e-06
29 *460:10 *477:49 0
30 *461:10 *477:49 0.000338001
31 *461:20 *1669:A 0.000400886
32 *461:20 *477:49 0.00172048
33 *475:8 *1669:A 7.88926e-05
34 *475:12 *1669:A 0.000107732
35 *475:12 *477:49 7.76364e-06
*RES
1 *1998:Q *477:4 23 
2 *477:4 *477:10 11.2686 
3 *477:10 *1715:A 24.5743 
4 *477:10 *477:23 41.4136 
5 *477:23 *1714:A 23 
6 *477:4 *477:32 28.485 
7 *477:32 *1669:A 48.8129 
8 *477:32 *477:49 46.4029 
9 *477:49 *1911:D 23 
*END

*D_NET *478 0.00172692
*CONN
*I *1902:D I *D sky130_fd_sc_hd__dfrtp_1
*I *1907:Q O *D sky130_fd_sc_hd__dfrtp_1
*CAP
1 *1902:D 0.000455396
2 *1907:Q 0.000227558
3 *478:8 0.000682954
4 *1902:D *481:8 0
5 *5:9 *1902:D 0
6 *418:12 *1902:D 0
7 *418:65 *1902:D 0
8 *459:10 *1902:D 0
9 *459:16 *1902:D 0
10 *460:10 *1902:D 0.000361011
11 *477:49 *1902:D 0
*RES
1 *1907:Q *478:8 41.0036 
2 *478:8 *1902:D 48.005 
*END

*D_NET *479 0.00311336
*CONN
*I *1903:D I *D sky130_fd_sc_hd__dfrtp_1
*I *1908:Q O *D sky130_fd_sc_hd__dfrtp_1
*CAP
1 *1903:D 0.000319219
2 *1908:Q 0.000630956
3 *479:8 0.000950175
4 *1903:CLK *1903:D 7.88926e-05
5 *1908:RESET_B *479:8 0.000693192
6 *1928:RESET_B *1903:D 0
7 *438:166 *1903:D 0
8 *458:34 *1903:D 0.000440928
9 *462:37 *1903:D 0
*RES
1 *1908:Q *479:8 47.1971 
2 *479:8 *1903:D 45.7057 
*END

*D_NET *480 0.00147606
*CONN
*I *1904:D I *D sky130_fd_sc_hd__dfrtp_1
*I *1909:Q O *D sky130_fd_sc_hd__dfrtp_1
*CAP
1 *1904:D 0
2 *1909:Q 0.000556263
3 *480:10 0.000556263
4 *1909:RESET_B *480:10 0.000133133
5 *446:12 *480:10 0.000116314
6 *458:34 *480:10 0.000114083
*RES
1 *1909:Q *480:10 46.3686 
2 *480:10 *1904:D 38 
*END

*D_NET *481 0.000700833
*CONN
*I *1905:D I *D sky130_fd_sc_hd__dfrtp_1
*I *1910:Q O *D sky130_fd_sc_hd__dfrtp_1
*CAP
1 *1905:D 0.000125667
2 *1910:Q 5.13451e-05
3 *481:8 0.000177012
4 *1902:D *481:8 0
5 *5:9 *481:8 5.80963e-05
6 *216:14 *1905:D 6.62899e-05
7 *418:16 *1905:D 7.88926e-05
8 *459:10 *1905:D 5.50106e-05
9 *459:10 *481:8 8.85189e-05
*RES
1 *1910:Q *481:8 39.5536 
2 *481:8 *1905:D 41.0036 
*END

*D_NET *482 0.000653987
*CONN
*I *1906:D I *D sky130_fd_sc_hd__dfrtp_1
*I *1911:Q O *D sky130_fd_sc_hd__dfrtp_1
*CAP
1 *1906:D 0
2 *1911:Q 0.000273648
3 *482:10 0.000273648
4 *458:12 *482:10 5.21024e-05
5 *462:12 *482:10 5.45887e-05
*RES
1 *1911:Q *482:10 42.0807 
2 *482:10 *1906:D 38 
*END

*D_NET *483 0.00207623
*CONN
*I *1677:A1 I *D sky130_fd_sc_hd__a221o_1
*I *1675:A_N I *D sky130_fd_sc_hd__nand2b_1
*I *1902:Q O *D sky130_fd_sc_hd__dfrtp_1
*CAP
1 *1677:A1 3.41549e-05
2 *1675:A_N 0.000243526
3 *1902:Q 0.000334703
4 *483:10 0.000612384
5 *1625:A *1675:A_N 4.86669e-05
6 *1675:B *1675:A_N 1.07899e-05
7 *166:14 *1675:A_N 5.50049e-05
8 *168:10 *1675:A_N 0.000136486
9 *169:21 *483:10 0
10 *210:10 *483:10 8.4047e-05
11 *211:10 *1675:A_N 0
12 *211:10 *483:10 0
13 *212:10 *1675:A_N 2.10885e-05
14 *446:10 *1675:A_N 0.000120631
15 *458:18 *483:10 2.49733e-05
16 *462:12 *483:10 8.33724e-05
17 *462:29 *1675:A_N 0.000137651
18 *462:29 *1677:A1 5.59479e-05
19 *462:29 *483:10 6.8171e-05
20 *462:37 *1675:A_N 4.6318e-06
*RES
1 *1902:Q *483:10 43.6446 
2 *483:10 *1675:A_N 44.6182 
3 *483:10 *1677:A1 39.2946 
*END

*D_NET *484 0.000838402
*CONN
*I *1676:A I *D sky130_fd_sc_hd__xor2_1
*I *1903:Q O *D sky130_fd_sc_hd__dfrtp_1
*CAP
1 *1676:A 0
2 *1903:Q 0.000221782
3 *484:10 0.000221782
4 *423:78 *484:10 7.53384e-06
5 *423:93 *484:10 2.93747e-05
6 *459:16 *484:10 0
7 *460:14 *484:10 0.00035793
*RES
1 *1903:Q *484:10 43.3443 
2 *484:10 *1676:A 38 
*END

*D_NET *485 0.00190284
*CONN
*I *1679:A1 I *D sky130_fd_sc_hd__a221o_1
*I *1678:A1 I *D sky130_fd_sc_hd__o221ai_2
*I *1904:Q O *D sky130_fd_sc_hd__dfrtp_1
*CAP
1 *1679:A1 0.000291261
2 *1678:A1 4.04478e-05
3 *1904:Q 0.000377349
4 *485:8 0.000709059
5 *1679:B1 *1679:A1 6.17437e-06
6 *14:11 *485:8 0
7 *166:14 *485:8 0
8 *167:14 *1679:A1 1.46586e-05
9 *169:6 *1679:A1 0.000110483
10 *215:8 *1679:A1 4.06512e-05
11 *215:8 *485:8 3.07161e-05
12 *435:10 *1678:A1 1.59094e-05
13 *435:10 *485:8 0.000163352
14 *439:10 *485:8 0.000102778
15 *462:37 *485:8 0
*RES
1 *1904:Q *485:8 45.8921 
2 *485:8 *1678:A1 38.6214 
3 *485:8 *1679:A1 43.4064 
*END

*D_NET *486 0.00117309
*CONN
*I *1677:B1 I *D sky130_fd_sc_hd__a221o_1
*I *1674:A_N I *D sky130_fd_sc_hd__and2b_1
*I *1905:Q O *D sky130_fd_sc_hd__dfrtp_1
*CAP
1 *1677:B1 0.000227352
2 *1674:A_N 0
3 *1905:Q 0
4 *486:12 0.000186326
5 *486:4 0.000413678
6 *1677:B2 *1677:B1 8.72235e-06
7 *1681:A1 *1677:B1 0
8 *216:14 *1677:B1 3.16697e-05
9 *216:14 *486:12 5.773e-05
10 *418:135 *486:12 8.62783e-05
11 *446:59 *486:12 0.000141879
12 *477:49 *486:12 1.94522e-05
*RES
1 *1905:Q *486:4 23 
2 *486:4 *486:12 33.48 
3 *486:12 *1674:A_N 23 
4 *486:4 *1677:B1 26.2521 
*END

*D_NET *487 0.000650336
*CONN
*I *1628:A I *D sky130_fd_sc_hd__inv_2
*I *1906:Q O *D sky130_fd_sc_hd__dfrtp_1
*CAP
1 *1628:A 0
2 *1906:Q 0.000325168
3 *487:10 0.000325168
4 *169:21 *487:10 0
5 *458:12 *487:10 0
*RES
1 *1906:Q *487:10 42.785 
2 *487:10 *1628:A 38 
*END

*D_NET *488 0.000669996
*CONN
*I *2027:D I *D sky130_fd_sc_hd__dfrtp_4
*I *1684:Y O *D sky130_fd_sc_hd__nor2_1
*CAP
1 *2027:D 0
2 *1684:Y 0.000306949
3 *488:10 0.000306949
4 *218:23 *488:10 2.64616e-05
5 *415:27 *488:10 2.96369e-05
*RES
1 *1684:Y *488:10 42.3086 
2 *488:10 *2027:D 38 
*END

*D_NET *489 0.000258217
*CONN
*I *2028:D I *D sky130_fd_sc_hd__dfrtp_4
*I *1687:Y O *D sky130_fd_sc_hd__nor2_1
*CAP
1 *2028:D 0
2 *1687:Y 7.09511e-05
3 *489:8 7.09511e-05
4 *1689:B *489:8 0.000116314
5 *2028:RESET_B *489:8 0
6 *409:8 *489:8 0
*RES
1 *1687:Y *489:8 39.5536 
2 *489:8 *2028:D 38 
*END

*D_NET *490 0.00104286
*CONN
*I *2029:D I *D sky130_fd_sc_hd__dfrtp_4
*I *1691:Y O *D sky130_fd_sc_hd__nor2_1
*CAP
1 *2029:D 4.01848e-05
2 *1691:Y 0.000280229
3 *490:10 0.000320414
4 *1691:B *490:10 5.561e-05
5 *410:10 *490:10 3.31683e-05
6 *446:151 *490:10 0.000313249
*RES
1 *1691:Y *490:10 43.0336 
2 *490:10 *2029:D 38.6214 
*END

*D_NET *491 0.00103379
*CONN
*I *2030:D I *D sky130_fd_sc_hd__dfrtp_4
*I *1695:X O *D sky130_fd_sc_hd__and2b_1
*CAP
1 *2030:D 0
2 *1695:X 0.000406146
3 *491:10 0.000406146
4 *1698:A *491:10 0.000180812
5 *1698:B *491:10 4.06849e-05
6 *418:110 *491:10 0
*RES
1 *1695:X *491:10 44.4629 
2 *491:10 *2030:D 38 
*END

*D_NET *492 0.0012466
*CONN
*I *2031:D I *D sky130_fd_sc_hd__dfrtp_4
*I *1697:Y O *D sky130_fd_sc_hd__xnor2_1
*CAP
1 *2031:D 0
2 *1697:Y 0.000445526
3 *492:10 0.000445526
4 *458:80 *492:10 0.000355552
*RES
1 *1697:Y *492:10 45.7679 
2 *492:10 *2031:D 38 
*END

*D_NET *493 0.00103202
*CONN
*I *2032:D I *D sky130_fd_sc_hd__dfrtp_1
*I *1688:Y O *D sky130_fd_sc_hd__xnor2_1
*CAP
1 *2032:D 0
2 *1688:Y 0.000298106
3 *493:8 0.000298106
4 *1683:A *493:8 5.67058e-05
5 *1688:B *493:8 4.19743e-05
6 *216:14 *493:8 2.07242e-05
7 *216:18 *493:8 0.000143655
8 *418:16 *493:8 7.42621e-05
9 *418:20 *493:8 9.84851e-05
*RES
1 *1688:Y *493:8 29.8357 
2 *493:8 *2032:D 23 
*END

*D_NET *494 0.00136703
*CONN
*I *2033:D I *D sky130_fd_sc_hd__dfrtp_1
*I *1692:Y O *D sky130_fd_sc_hd__xnor2_1
*CAP
1 *2033:D 0
2 *1692:Y 0.00053578
3 *494:10 0.00053578
4 *494:10 *2034:D 5.50049e-05
5 *1690:B *494:10 0.000230604
6 *2033:CLK *494:10 0
7 *5:9 *494:10 0
8 *415:27 *494:10 0
9 *417:108 *494:10 9.86125e-06
*RES
1 *1692:Y *494:10 48.7921 
2 *494:10 *2033:D 38 
*END

*D_NET *495 0.000819369
*CONN
*I *2034:D I *D sky130_fd_sc_hd__dfrtp_1
*I *1696:Y O *D sky130_fd_sc_hd__xnor2_1
*CAP
1 *2034:D 0.000299264
2 *1696:Y 6.12476e-05
3 *495:8 0.000360512
4 *222:8 *495:8 4.334e-05
5 *417:108 *495:8 0
6 *494:10 *2034:D 5.50049e-05
*RES
1 *1696:Y *495:8 39.2014 
2 *495:8 *2034:D 41.858 
*END

*D_NET *496 0.000876403
*CONN
*I *2035:D I *D sky130_fd_sc_hd__dfrtp_1
*I *1698:Y O *D sky130_fd_sc_hd__xnor2_1
*CAP
1 *2035:D 0
2 *1698:Y 0.000253832
3 *496:10 0.000253832
4 *1698:A *496:10 0.000153145
5 *418:97 *496:10 5.82853e-05
6 *418:110 *496:10 0.000157309
*RES
1 *1698:Y *496:10 43.9657 
2 *496:10 *2035:D 38 
*END

*D_NET *497 0.000674
*CONN
*I *1994:D I *D sky130_fd_sc_hd__dfrtp_4
*I *1701:X O *D sky130_fd_sc_hd__xor2_1
*CAP
1 *1994:D 0
2 *1701:X 0.000255478
3 *497:10 0.000255478
4 *1701:B *497:10 1.24376e-05
5 *225:8 *497:10 3.34247e-05
6 *225:23 *497:10 1.86973e-05
7 *411:14 *497:10 9.84851e-05
8 *432:98 *497:10 0
9 *459:16 *497:10 0
*RES
1 *1701:X *497:10 41.7079 
2 *497:10 *1994:D 38 
*END

*D_NET *498 0.00116284
*CONN
*I *1995:D I *D sky130_fd_sc_hd__dfrtp_4
*I *1704:Y O *D sky130_fd_sc_hd__nor2_1
*CAP
1 *1995:D 0
2 *1704:Y 0.000431845
3 *498:10 0.000431845
4 *1704:A *498:10 0.000203801
5 *225:23 *498:10 0
6 *227:8 *498:10 9.53499e-05
7 *432:98 *498:10 0
*RES
1 *1704:Y *498:10 46.2857 
2 *498:10 *1995:D 38 
*END

*D_NET *499 0.000576486
*CONN
*I *1996:D I *D sky130_fd_sc_hd__dfrtp_4
*I *1707:X O *D sky130_fd_sc_hd__xor2_1
*CAP
1 *1996:D 0.000123113
2 *1707:X 0.000123113
3 *413:10 *1996:D 0.000271476
4 *413:23 *1996:D 0
5 *432:113 *1996:D 5.87834e-05
*RES
1 *1707:X *1996:D 49.8529 
*END

*D_NET *500 0.00133511
*CONN
*I *1997:D I *D sky130_fd_sc_hd__dfrtp_1
*I *1712:X O *D sky130_fd_sc_hd__and2_1
*CAP
1 *1997:D 1.68327e-05
2 *1712:X 0.000336536
3 *500:10 0.000353369
4 *1712:B *500:10 0.000180224
5 *1997:CLK *500:10 1.94418e-05
6 *1998:RESET_B *500:10 5.561e-05
7 *2000:RESET_B *500:10 4.6318e-06
8 *165:29 *1997:D 5.67058e-05
9 *411:179 *1997:D 1.39317e-05
10 *411:196 *500:10 0.000145915
11 *438:185 *500:10 0.000151909
12 *474:12 *500:10 0
*RES
1 *1712:X *500:10 45.4779 
2 *500:10 *1997:D 38.6214 
*END

*D_NET *501 0.0013005
*CONN
*I *1998:D I *D sky130_fd_sc_hd__dfrtp_2
*I *1714:Y O *D sky130_fd_sc_hd__xnor2_1
*CAP
1 *1998:D 0
2 *1714:Y 0.000541839
3 *501:10 0.000541839
4 *1998:RESET_B *501:10 0
5 *231:12 *501:10 0
6 *423:10 *501:10 7.66085e-05
7 *423:12 *501:10 0.000140212
*RES
1 *1714:Y *501:10 49.455 
2 *501:10 *1998:D 38 
*END

*D_NET *502 0.00411113
*CONN
*I *1999:D I *D sky130_fd_sc_hd__dfrtp_1
*I *1705:Y O *D sky130_fd_sc_hd__xnor2_1
*CAP
1 *1999:D 0
2 *1705:Y 0.000319676
3 *502:16 0.000978178
4 *502:8 0.00129785
5 *1929:CLK *502:8 0.000223698
6 *1999:RESET_B *502:16 0
7 *27:12 *502:16 0.000111852
8 *423:29 *502:8 0.000227208
9 *423:78 *502:16 0.000320944
10 *474:12 *502:16 0.000323831
11 *476:14 *502:16 0.000307888
*RES
1 *1705:Y *502:8 42.9093 
2 *502:8 *502:16 34.3471 
3 *502:16 *1999:D 23 
*END

*D_NET *503 0.001354
*CONN
*I *2000:D I *D sky130_fd_sc_hd__dfrtp_1
*I *1708:Y O *D sky130_fd_sc_hd__xnor2_1
*CAP
1 *2000:D 0.000163288
2 *1708:Y 0.000145963
3 *503:10 0.000309251
4 *1704:B *503:10 0.000141879
5 *413:76 *2000:D 2.81406e-06
6 *413:80 *2000:D 1.24376e-05
7 *432:113 *503:10 7.90464e-05
8 *450:8 *503:10 5.50049e-05
9 *450:226 *503:10 0.000302339
10 *450:240 *2000:D 0.000141974
*RES
1 *1708:Y *503:10 42.64 
2 *503:10 *2000:D 40.4287 
*END

*D_NET *504 0.000472584
*CONN
*I *2001:D I *D sky130_fd_sc_hd__dfrtp_1
*I *1713:Y O *D sky130_fd_sc_hd__xnor2_1
*CAP
1 *2001:D 0
2 *1713:Y 0.000186202
3 *504:10 0.000186202
4 *1706:A1 *504:10 0.00010018
5 *459:16 *504:10 0
6 *474:12 *504:10 0
*RES
1 *1713:Y *504:10 41.0036 
2 *504:10 *2001:D 38 
*END

*D_NET *505 0.00128882
*CONN
*I *2002:D I *D sky130_fd_sc_hd__dfrtp_1
*I *1715:X O *D sky130_fd_sc_hd__xor2_1
*CAP
1 *2002:D 3.98641e-05
2 *1715:X 0.000294874
3 *505:10 0.000334738
4 *1710:A *505:10 0.000163361
5 *1998:RESET_B *505:10 0
6 *2002:CLK *505:10 0.000215782
7 *231:151 *505:10 3.83778e-05
8 *411:207 *2002:D 2.93747e-05
9 *423:14 *505:10 0.000108681
10 *477:10 *505:10 6.37697e-05
*RES
1 *1715:X *505:10 43.945 
2 *505:10 *2002:D 38.6214 
*END
