*SPEF "ieee 1481-1999"
*DESIGN "async_fifo"
*DATE "16:07:26 Friday August 14, 2026"
*VENDOR "The OpenROAD Project"
*PROGRAM "OpenROAD"
*VERSION "edf00dff99f6c40d67a30c0e22a8191c5d2ed9d6"
*DESIGN_FLOW "NAME_SCOPE LOCAL" "PIN_CAP NONE"
*DIVIDER /
*DELIMITER :
*BUS_DELIMITER []
*T_UNIT 1 NS
*C_UNIT 1 PF
*R_UNIT 1 OHM
*L_UNIT 1 HENRY

*NAME_MAP
*3 empty
*4 full
*5 rclk
*6 rdata[0]
*7 rdata[1]
*8 rdata[2]
*9 rdata[3]
*10 rdata[4]
*11 rdata[5]
*12 rdata[6]
*13 rdata[7]
*14 ren
*15 rrst_n
*16 wclk
*17 wdata[0]
*18 wdata[1]
*19 wdata[2]
*20 wdata[3]
*21 wdata[4]
*22 wdata[5]
*23 wdata[6]
*24 wdata[7]
*25 wen
*26 wrst_n
*27 _000_
*28 _001_
*29 _002_
*30 _003_
*31 _004_
*32 _005_
*33 _006_
*34 _007_
*35 _008_
*36 _009_
*37 _010_
*38 _011_
*39 _012_
*40 _013_
*41 _014_
*42 _015_
*43 _016_
*44 _017_
*45 _018_
*46 _019_
*47 _020_
*48 _021_
*49 _022_
*50 _023_
*51 _024_
*52 _025_
*53 _026_
*54 _027_
*55 _028_
*56 _029_
*57 _030_
*58 _031_
*59 _032_
*60 _033_
*61 _034_
*62 _035_
*63 _036_
*64 _037_
*65 _038_
*66 _039_
*67 _040_
*68 _041_
*69 _042_
*70 _043_
*71 _044_
*72 _045_
*73 _046_
*74 _047_
*75 _048_
*76 _049_
*77 _050_
*78 _051_
*79 _052_
*80 _053_
*81 _054_
*82 _055_
*83 _056_
*84 _057_
*85 _058_
*86 _059_
*87 _060_
*88 _061_
*89 _062_
*90 _063_
*91 _064_
*92 _065_
*93 _066_
*94 _067_
*95 _068_
*96 _069_
*97 _070_
*98 _071_
*99 _072_
*100 _073_
*101 _074_
*102 _075_
*103 _076_
*104 _077_
*105 _078_
*106 _079_
*107 _080_
*108 _081_
*109 _082_
*110 _083_
*111 _084_
*112 _085_
*113 _086_
*114 _087_
*115 _088_
*116 _089_
*117 _090_
*118 _091_
*119 _092_
*120 _093_
*121 _094_
*122 _095_
*123 _096_
*124 _097_
*125 _098_
*126 _099_
*127 _100_
*128 _101_
*129 _102_
*130 _103_
*131 _104_
*132 _105_
*133 _106_
*134 _107_
*135 _108_
*136 _109_
*137 _110_
*138 _111_
*139 _112_
*140 _113_
*141 _114_
*142 _115_
*143 _116_
*144 _117_
*145 _118_
*146 _119_
*147 _120_
*148 _121_
*149 _122_
*150 _123_
*151 _124_
*152 _125_
*153 _126_
*154 _127_
*155 _128_
*156 _129_
*157 _130_
*158 _131_
*159 _132_
*160 _133_
*161 _134_
*162 _135_
*163 _136_
*164 _137_
*165 _138_
*166 _139_
*167 _140_
*168 _141_
*169 _142_
*170 _143_
*171 _144_
*172 _145_
*173 _146_
*174 _147_
*175 _148_
*176 _149_
*177 _150_
*178 _151_
*179 _152_
*180 _153_
*181 _154_
*182 _155_
*183 _156_
*184 _157_
*185 _158_
*186 _159_
*187 _160_
*188 _161_
*189 _162_
*190 _163_
*191 _164_
*192 _165_
*193 _166_
*194 _167_
*195 _168_
*196 _169_
*197 _170_
*198 _171_
*199 _172_
*200 _173_
*201 _174_
*202 _175_
*203 _176_
*204 _177_
*205 _178_
*206 _179_
*207 _180_
*208 _181_
*209 _182_
*210 _183_
*211 _184_
*212 _185_
*213 _186_
*214 _187_
*215 _188_
*216 _189_
*217 _190_
*218 _191_
*219 _192_
*220 _193_
*221 _194_
*222 _195_
*223 _196_
*224 _197_
*225 _198_
*226 _199_
*227 _200_
*228 _201_
*229 _202_
*230 _203_
*231 _204_
*232 _205_
*233 _206_
*234 _207_
*235 _208_
*236 _209_
*237 _210_
*238 _211_
*239 _212_
*240 _213_
*241 _214_
*242 _215_
*243 _216_
*244 _217_
*245 _218_
*246 _219_
*247 _220_
*248 _221_
*249 _222_
*250 _223_
*251 _224_
*252 _225_
*253 _226_
*254 _227_
*255 _228_
*256 _229_
*257 _230_
*258 _231_
*259 _232_
*260 _233_
*261 _234_
*262 _235_
*263 _236_
*264 _237_
*265 _238_
*266 _239_
*267 _240_
*268 _241_
*269 _242_
*270 _243_
*271 _244_
*272 _245_
*273 _246_
*274 _247_
*275 _248_
*276 _249_
*277 _250_
*278 _251_
*279 bram\.mem\[0\]\[0\]
*280 bram\.mem\[0\]\[1\]
*281 bram\.mem\[0\]\[2\]
*282 bram\.mem\[0\]\[3\]
*283 bram\.mem\[0\]\[4\]
*284 bram\.mem\[0\]\[5\]
*285 bram\.mem\[0\]\[6\]
*286 bram\.mem\[0\]\[7\]
*287 bram\.mem\[10\]\[0\]
*288 bram\.mem\[10\]\[1\]
*289 bram\.mem\[10\]\[2\]
*290 bram\.mem\[10\]\[3\]
*291 bram\.mem\[10\]\[4\]
*292 bram\.mem\[10\]\[5\]
*293 bram\.mem\[10\]\[6\]
*294 bram\.mem\[10\]\[7\]
*295 bram\.mem\[11\]\[0\]
*296 bram\.mem\[11\]\[1\]
*297 bram\.mem\[11\]\[2\]
*298 bram\.mem\[11\]\[3\]
*299 bram\.mem\[11\]\[4\]
*300 bram\.mem\[11\]\[5\]
*301 bram\.mem\[11\]\[6\]
*302 bram\.mem\[11\]\[7\]
*303 bram\.mem\[12\]\[0\]
*304 bram\.mem\[12\]\[1\]
*305 bram\.mem\[12\]\[2\]
*306 bram\.mem\[12\]\[3\]
*307 bram\.mem\[12\]\[4\]
*308 bram\.mem\[12\]\[5\]
*309 bram\.mem\[12\]\[6\]
*310 bram\.mem\[12\]\[7\]
*311 bram\.mem\[13\]\[0\]
*312 bram\.mem\[13\]\[1\]
*313 bram\.mem\[13\]\[2\]
*314 bram\.mem\[13\]\[3\]
*315 bram\.mem\[13\]\[4\]
*316 bram\.mem\[13\]\[5\]
*317 bram\.mem\[13\]\[6\]
*318 bram\.mem\[13\]\[7\]
*319 bram\.mem\[14\]\[0\]
*320 bram\.mem\[14\]\[1\]
*321 bram\.mem\[14\]\[2\]
*322 bram\.mem\[14\]\[3\]
*323 bram\.mem\[14\]\[4\]
*324 bram\.mem\[14\]\[5\]
*325 bram\.mem\[14\]\[6\]
*326 bram\.mem\[14\]\[7\]
*327 bram\.mem\[15\]\[0\]
*328 bram\.mem\[15\]\[1\]
*329 bram\.mem\[15\]\[2\]
*330 bram\.mem\[15\]\[3\]
*331 bram\.mem\[15\]\[4\]
*332 bram\.mem\[15\]\[5\]
*333 bram\.mem\[15\]\[6\]
*334 bram\.mem\[15\]\[7\]
*335 bram\.mem\[1\]\[0\]
*336 bram\.mem\[1\]\[1\]
*337 bram\.mem\[1\]\[2\]
*338 bram\.mem\[1\]\[3\]
*339 bram\.mem\[1\]\[4\]
*340 bram\.mem\[1\]\[5\]
*341 bram\.mem\[1\]\[6\]
*342 bram\.mem\[1\]\[7\]
*343 bram\.mem\[2\]\[0\]
*344 bram\.mem\[2\]\[1\]
*345 bram\.mem\[2\]\[2\]
*346 bram\.mem\[2\]\[3\]
*347 bram\.mem\[2\]\[4\]
*348 bram\.mem\[2\]\[5\]
*349 bram\.mem\[2\]\[6\]
*350 bram\.mem\[2\]\[7\]
*351 bram\.mem\[3\]\[0\]
*352 bram\.mem\[3\]\[1\]
*353 bram\.mem\[3\]\[2\]
*354 bram\.mem\[3\]\[3\]
*355 bram\.mem\[3\]\[4\]
*356 bram\.mem\[3\]\[5\]
*357 bram\.mem\[3\]\[6\]
*358 bram\.mem\[3\]\[7\]
*359 bram\.mem\[4\]\[0\]
*360 bram\.mem\[4\]\[1\]
*361 bram\.mem\[4\]\[2\]
*362 bram\.mem\[4\]\[3\]
*363 bram\.mem\[4\]\[4\]
*364 bram\.mem\[4\]\[5\]
*365 bram\.mem\[4\]\[6\]
*366 bram\.mem\[4\]\[7\]
*367 bram\.mem\[5\]\[0\]
*368 bram\.mem\[5\]\[1\]
*369 bram\.mem\[5\]\[2\]
*370 bram\.mem\[5\]\[3\]
*371 bram\.mem\[5\]\[4\]
*372 bram\.mem\[5\]\[5\]
*373 bram\.mem\[5\]\[6\]
*374 bram\.mem\[5\]\[7\]
*375 bram\.mem\[6\]\[0\]
*376 bram\.mem\[6\]\[1\]
*377 bram\.mem\[6\]\[2\]
*378 bram\.mem\[6\]\[3\]
*379 bram\.mem\[6\]\[4\]
*380 bram\.mem\[6\]\[5\]
*381 bram\.mem\[6\]\[6\]
*382 bram\.mem\[6\]\[7\]
*383 bram\.mem\[7\]\[0\]
*384 bram\.mem\[7\]\[1\]
*385 bram\.mem\[7\]\[2\]
*386 bram\.mem\[7\]\[3\]
*387 bram\.mem\[7\]\[4\]
*388 bram\.mem\[7\]\[5\]
*389 bram\.mem\[7\]\[6\]
*390 bram\.mem\[7\]\[7\]
*391 bram\.mem\[8\]\[0\]
*392 bram\.mem\[8\]\[1\]
*393 bram\.mem\[8\]\[2\]
*394 bram\.mem\[8\]\[3\]
*395 bram\.mem\[8\]\[4\]
*396 bram\.mem\[8\]\[5\]
*397 bram\.mem\[8\]\[6\]
*398 bram\.mem\[8\]\[7\]
*399 bram\.mem\[9\]\[0\]
*400 bram\.mem\[9\]\[1\]
*401 bram\.mem\[9\]\[2\]
*402 bram\.mem\[9\]\[3\]
*403 bram\.mem\[9\]\[4\]
*404 bram\.mem\[9\]\[5\]
*405 bram\.mem\[9\]\[6\]
*406 bram\.mem\[9\]\[7\]
*407 bram\.raddr\[0\]
*408 bram\.raddr\[1\]
*409 bram\.raddr\[2\]
*410 bram\.raddr\[3\]
*411 bram\.waddr\[0\]
*412 bram\.waddr\[1\]
*413 bram\.waddr\[2\]
*414 bram\.waddr\[3\]
*415 clknet_0_rclk
*416 clknet_0_wclk
*417 clknet_1_0__leaf_rclk
*418 clknet_1_1__leaf_rclk
*419 clknet_4_0_0_wclk
*420 clknet_4_10_0_wclk
*421 clknet_4_11_0_wclk
*422 clknet_4_12_0_wclk
*423 clknet_4_13_0_wclk
*424 clknet_4_14_0_wclk
*425 clknet_4_15_0_wclk
*426 clknet_4_1_0_wclk
*427 clknet_4_2_0_wclk
*428 clknet_4_3_0_wclk
*429 clknet_4_4_0_wclk
*430 clknet_4_5_0_wclk
*431 clknet_4_6_0_wclk
*432 clknet_4_7_0_wclk
*433 clknet_4_8_0_wclk
*434 clknet_4_9_0_wclk
*435 net1
*436 net10
*437 net11
*438 net12
*439 net13
*440 net14
*441 net15
*442 net16
*443 net17
*444 net18
*445 net19
*446 net2
*447 net20
*448 net21
*449 net22
*450 net23
*451 net3
*452 net4
*453 net5
*454 net6
*455 net7
*456 net8
*457 net9
*458 r_ptr_bin\[4\]
*459 r_ptr_gray\[0\]
*460 r_ptr_gray\[1\]
*461 r_ptr_gray\[2\]
*462 r_ptr_gray\[3\]
*463 r_ptr_gray_sync\[0\]
*464 r_ptr_gray_sync\[1\]
*465 r_ptr_gray_sync\[2\]
*466 r_ptr_gray_sync\[3\]
*467 r_ptr_gray_sync\[4\]
*468 sync_grptr_to_wr\.q1\[0\]
*469 sync_grptr_to_wr\.q1\[1\]
*470 sync_grptr_to_wr\.q1\[2\]
*471 sync_grptr_to_wr\.q1\[3\]
*472 sync_grptr_to_wr\.q1\[4\]
*473 sync_gwptr_to_rd\.d1\[0\]
*474 sync_gwptr_to_rd\.d1\[1\]
*475 sync_gwptr_to_rd\.d1\[2\]
*476 sync_gwptr_to_rd\.d1\[3\]
*477 sync_gwptr_to_rd\.d1\[4\]
*478 sync_gwptr_to_rd\.q1\[0\]
*479 sync_gwptr_to_rd\.q1\[1\]
*480 sync_gwptr_to_rd\.q1\[2\]
*481 sync_gwptr_to_rd\.q1\[3\]
*482 sync_gwptr_to_rd\.q1\[4\]
*483 sync_gwptr_to_rd\.q2\[0\]
*484 sync_gwptr_to_rd\.q2\[1\]
*485 sync_gwptr_to_rd\.q2\[2\]
*486 sync_gwptr_to_rd\.q2\[3\]
*487 sync_gwptr_to_rd\.q2\[4\]
*488 u_rptr_handler\.b_rptr_next\[0\]
*489 u_rptr_handler\.b_rptr_next\[1\]
*490 u_rptr_handler\.b_rptr_next\[2\]
*491 u_rptr_handler\.b_rptr_next\[3\]
*492 u_rptr_handler\.b_rptr_next\[4\]
*493 u_rptr_handler\.g_rptr_next\[0\]
*494 u_rptr_handler\.g_rptr_next\[1\]
*495 u_rptr_handler\.g_rptr_next\[2\]
*496 u_rptr_handler\.g_rptr_next\[3\]
*497 u_wrptr_handler\.b_wptr_next\[0\]
*498 u_wrptr_handler\.b_wptr_next\[1\]
*499 u_wrptr_handler\.b_wptr_next\[2\]
*500 u_wrptr_handler\.b_wptr_next\[3\]
*501 u_wrptr_handler\.b_wptr_next\[4\]
*502 u_wrptr_handler\.g_wptr_next\[0\]
*503 u_wrptr_handler\.g_wptr_next\[1\]
*504 u_wrptr_handler\.g_wptr_next\[2\]
*505 u_wrptr_handler\.g_wptr_next\[3\]
*506 FILLER_0_107
*507 FILLER_0_111
*508 FILLER_0_113
*509 FILLER_0_121
*510 FILLER_0_133
*511 FILLER_0_139
*512 FILLER_0_15
*513 FILLER_0_150
*514 FILLER_0_162
*515 FILLER_0_185
*516 FILLER_0_193
*517 FILLER_0_197
*518 FILLER_0_209
*519 FILLER_0_221
*520 FILLER_0_225
*521 FILLER_0_237
*522 FILLER_0_249
*523 FILLER_0_253
*524 FILLER_0_27
*525 FILLER_0_29
*526 FILLER_0_3
*527 FILLER_0_37
*528 FILLER_0_44
*529 FILLER_0_57
*530 FILLER_0_76
*531 FILLER_0_94
*532 FILLER_10_102
*533 FILLER_10_112
*534 FILLER_10_120
*535 FILLER_10_132
*536 FILLER_10_15
*537 FILLER_10_150
*538 FILLER_10_168
*539 FILLER_10_178
*540 FILLER_10_190
*541 FILLER_10_197
*542 FILLER_10_209
*543 FILLER_10_221
*544 FILLER_10_233
*545 FILLER_10_245
*546 FILLER_10_251
*547 FILLER_10_253
*548 FILLER_10_27
*549 FILLER_10_29
*550 FILLER_10_3
*551 FILLER_10_46
*552 FILLER_10_58
*553 FILLER_10_70
*554 FILLER_10_82
*555 FILLER_10_94
*556 FILLER_11_106
*557 FILLER_11_113
*558 FILLER_11_125
*559 FILLER_11_137
*560 FILLER_11_149
*561 FILLER_11_166
*562 FILLER_11_187
*563 FILLER_11_199
*564 FILLER_11_211
*565 FILLER_11_223
*566 FILLER_11_225
*567 FILLER_11_237
*568 FILLER_11_245
*569 FILLER_11_25
*570 FILLER_11_3
*571 FILLER_11_54
*572 FILLER_11_57
*573 FILLER_11_70
*574 FILLER_11_83
*575 FILLER_11_95
*576 FILLER_12_105
*577 FILLER_12_11
*578 FILLER_12_123
*579 FILLER_12_159
*580 FILLER_12_192
*581 FILLER_12_197
*582 FILLER_12_209
*583 FILLER_12_221
*584 FILLER_12_233
*585 FILLER_12_245
*586 FILLER_12_251
*587 FILLER_12_253
*588 FILLER_12_29
*589 FILLER_12_3
*590 FILLER_12_51
*591 FILLER_12_85
*592 FILLER_13_11
*593 FILLER_13_122
*594 FILLER_13_160
*595 FILLER_13_169
*596 FILLER_13_210
*597 FILLER_13_222
*598 FILLER_13_225
*599 FILLER_13_237
*600 FILLER_13_249
*601 FILLER_13_3
*602 FILLER_13_51
*603 FILLER_13_55
*604 FILLER_13_57
*605 FILLER_13_63
*606 FILLER_13_94
*607 FILLER_14_130
*608 FILLER_14_141
*609 FILLER_14_15
*610 FILLER_14_163
*611 FILLER_14_194
*612 FILLER_14_201
*613 FILLER_14_207
*614 FILLER_14_248
*615 FILLER_14_253
*616 FILLER_14_27
*617 FILLER_14_29
*618 FILLER_14_3
*619 FILLER_14_37
*620 FILLER_14_65
*621 FILLER_14_82
*622 FILLER_15_107
*623 FILLER_15_111
*624 FILLER_15_122
*625 FILLER_15_128
*626 FILLER_15_15
*627 FILLER_15_154
*628 FILLER_15_160
*629 FILLER_15_189
*630 FILLER_15_225
*631 FILLER_15_250
*632 FILLER_15_27
*633 FILLER_15_3
*634 FILLER_15_35
*635 FILLER_15_66
*636 FILLER_15_87
*637 FILLER_16_117
*638 FILLER_16_128
*639 FILLER_16_141
*640 FILLER_16_160
*641 FILLER_16_168
*642 FILLER_16_178
*643 FILLER_16_186
*644 FILLER_16_192
*645 FILLER_16_197
*646 FILLER_16_207
*647 FILLER_16_219
*648 FILLER_16_23
*649 FILLER_16_231
*650 FILLER_16_251
*651 FILLER_16_253
*652 FILLER_16_27
*653 FILLER_16_3
*654 FILLER_16_45
*655 FILLER_16_51
*656 FILLER_16_68
*657 FILLER_16_83
*658 FILLER_16_85
*659 FILLER_16_97
*660 FILLER_17_109
*661 FILLER_17_11
*662 FILLER_17_113
*663 FILLER_17_131
*664 FILLER_17_143
*665 FILLER_17_213
*666 FILLER_17_221
*667 FILLER_17_225
*668 FILLER_17_247
*669 FILLER_17_255
*670 FILLER_17_28
*671 FILLER_17_3
*672 FILLER_17_50
*673 FILLER_17_66
*674 FILLER_17_85
*675 FILLER_18_139
*676 FILLER_18_141
*677 FILLER_18_149
*678 FILLER_18_195
*679 FILLER_18_240
*680 FILLER_18_249
*681 FILLER_18_253
*682 FILLER_18_3
*683 FILLER_18_50
*684 FILLER_18_85
*685 FILLER_18_9
*686 FILLER_19_109
*687 FILLER_19_113
*688 FILLER_19_146
*689 FILLER_19_15
*690 FILLER_19_165
*691 FILLER_19_182
*692 FILLER_19_202
*693 FILLER_19_214
*694 FILLER_19_222
*695 FILLER_19_225
*696 FILLER_19_233
*697 FILLER_19_251
*698 FILLER_19_27
*699 FILLER_19_3
*700 FILLER_19_35
*701 FILLER_19_45
*702 FILLER_19_53
*703 FILLER_19_57
*704 FILLER_19_65
*705 FILLER_19_91
*706 FILLER_19_99
*707 FILLER_1_108
*708 FILLER_1_129
*709 FILLER_1_148
*710 FILLER_1_15
*711 FILLER_1_156
*712 FILLER_1_166
*713 FILLER_1_185
*714 FILLER_1_197
*715 FILLER_1_209
*716 FILLER_1_221
*717 FILLER_1_225
*718 FILLER_1_237
*719 FILLER_1_249
*720 FILLER_1_27
*721 FILLER_1_3
*722 FILLER_1_39
*723 FILLER_1_57
*724 FILLER_20_109
*725 FILLER_20_117
*726 FILLER_20_129
*727 FILLER_20_137
*728 FILLER_20_141
*729 FILLER_20_15
*730 FILLER_20_153
*731 FILLER_20_157
*732 FILLER_20_180
*733 FILLER_20_184
*734 FILLER_20_193
*735 FILLER_20_197
*736 FILLER_20_209
*737 FILLER_20_221
*738 FILLER_20_227
*739 FILLER_20_248
*740 FILLER_20_253
*741 FILLER_20_27
*742 FILLER_20_3
*743 FILLER_20_38
*744 FILLER_20_46
*745 FILLER_20_65
*746 FILLER_20_80
*747 FILLER_20_85
*748 FILLER_20_97
*749 FILLER_21_101
*750 FILLER_21_109
*751 FILLER_21_113
*752 FILLER_21_125
*753 FILLER_21_133
*754 FILLER_21_145
*755 FILLER_21_15
*756 FILLER_21_169
*757 FILLER_21_181
*758 FILLER_21_210
*759 FILLER_21_222
*760 FILLER_21_252
*761 FILLER_21_256
*762 FILLER_21_3
*763 FILLER_21_37
*764 FILLER_21_49
*765 FILLER_21_55
*766 FILLER_21_57
*767 FILLER_21_69
*768 FILLER_21_81
*769 FILLER_21_89
*770 FILLER_22_102
*771 FILLER_22_114
*772 FILLER_22_150
*773 FILLER_22_154
*774 FILLER_22_174
*775 FILLER_22_197
*776 FILLER_22_214
*777 FILLER_22_226
*778 FILLER_22_24
*779 FILLER_22_242
*780 FILLER_22_250
*781 FILLER_22_253
*782 FILLER_22_29
*783 FILLER_22_3
*784 FILLER_22_47
*785 FILLER_22_66
*786 FILLER_22_7
*787 FILLER_22_76
*788 FILLER_22_85
*789 FILLER_23_122
*790 FILLER_23_139
*791 FILLER_23_202
*792 FILLER_23_225
*793 FILLER_23_23
*794 FILLER_23_251
*795 FILLER_23_3
*796 FILLER_23_46
*797 FILLER_23_57
*798 FILLER_23_63
*799 FILLER_24_118
*800 FILLER_24_135
*801 FILLER_24_139
*802 FILLER_24_162
*803 FILLER_24_168
*804 FILLER_24_202
*805 FILLER_24_24
*806 FILLER_24_250
*807 FILLER_24_253
*808 FILLER_24_29
*809 FILLER_24_3
*810 FILLER_24_35
*811 FILLER_24_45
*812 FILLER_24_56
*813 FILLER_24_76
*814 FILLER_24_85
*815 FILLER_25_109
*816 FILLER_25_113
*817 FILLER_25_123
*818 FILLER_25_15
*819 FILLER_25_165
*820 FILLER_25_169
*821 FILLER_25_182
*822 FILLER_25_204
*823 FILLER_25_216
*824 FILLER_25_225
*825 FILLER_25_237
*826 FILLER_25_256
*827 FILLER_25_26
*828 FILLER_25_3
*829 FILLER_25_50
*830 FILLER_25_57
*831 FILLER_25_61
*832 FILLER_25_83
*833 FILLER_25_87
*834 FILLER_26_109
*835 FILLER_26_113
*836 FILLER_26_120
*837 FILLER_26_124
*838 FILLER_26_134
*839 FILLER_26_164
*840 FILLER_26_172
*841 FILLER_26_184
*842 FILLER_26_197
*843 FILLER_26_219
*844 FILLER_26_231
*845 FILLER_26_25
*846 FILLER_26_253
*847 FILLER_26_29
*848 FILLER_26_3
*849 FILLER_26_64
*850 FILLER_26_79
*851 FILLER_26_83
*852 FILLER_26_91
*853 FILLER_26_99
*854 FILLER_27_104
*855 FILLER_27_113
*856 FILLER_27_125
*857 FILLER_27_137
*858 FILLER_27_150
*859 FILLER_27_167
*860 FILLER_27_175
*861 FILLER_27_205
*862 FILLER_27_217
*863 FILLER_27_223
*864 FILLER_27_225
*865 FILLER_27_248
*866 FILLER_27_256
*867 FILLER_27_26
*868 FILLER_27_3
*869 FILLER_27_48
*870 FILLER_27_66
*871 FILLER_27_9
*872 FILLER_27_92
*873 FILLER_28_104
*874 FILLER_28_119
*875 FILLER_28_131
*876 FILLER_28_139
*877 FILLER_28_15
*878 FILLER_28_157
*879 FILLER_28_175
*880 FILLER_28_192
*881 FILLER_28_197
*882 FILLER_28_203
*883 FILLER_28_244
*884 FILLER_28_253
*885 FILLER_28_27
*886 FILLER_28_3
*887 FILLER_28_45
*888 FILLER_28_79
*889 FILLER_28_83
*890 FILLER_28_85
*891 FILLER_28_93
*892 FILLER_29_105
*893 FILLER_29_111
*894 FILLER_29_129
*895 FILLER_29_15
*896 FILLER_29_185
*897 FILLER_29_197
*898 FILLER_29_209
*899 FILLER_29_221
*900 FILLER_29_225
*901 FILLER_29_229
*902 FILLER_29_250
*903 FILLER_29_256
*904 FILLER_29_27
*905 FILLER_29_3
*906 FILLER_29_39
*907 FILLER_29_51
*908 FILLER_29_55
*909 FILLER_29_66
*910 FILLER_29_84
*911 FILLER_29_88
*912 FILLER_2_15
*913 FILLER_2_150
*914 FILLER_2_193
*915 FILLER_2_197
*916 FILLER_2_209
*917 FILLER_2_221
*918 FILLER_2_233
*919 FILLER_2_245
*920 FILLER_2_251
*921 FILLER_2_253
*922 FILLER_2_27
*923 FILLER_2_29
*924 FILLER_2_3
*925 FILLER_2_35
*926 FILLER_2_85
*927 FILLER_2_91
*928 FILLER_30_138
*929 FILLER_30_141
*930 FILLER_30_177
*931 FILLER_30_189
*932 FILLER_30_195
*933 FILLER_30_217
*934 FILLER_30_228
*935 FILLER_30_24
*936 FILLER_30_253
*937 FILLER_30_29
*938 FILLER_30_3
*939 FILLER_30_41
*940 FILLER_30_85
*941 FILLER_31_107
*942 FILLER_31_111
*943 FILLER_31_129
*944 FILLER_31_137
*945 FILLER_31_148
*946 FILLER_31_160
*947 FILLER_31_169
*948 FILLER_31_181
*949 FILLER_31_193
*950 FILLER_31_215
*951 FILLER_31_22
*952 FILLER_31_223
*953 FILLER_31_225
*954 FILLER_31_231
*955 FILLER_31_243
*956 FILLER_31_28
*957 FILLER_31_3
*958 FILLER_31_45
*959 FILLER_31_53
*960 FILLER_31_57
*961 FILLER_31_63
*962 FILLER_31_89
*963 FILLER_31_97
*964 FILLER_32_118
*965 FILLER_32_126
*966 FILLER_32_133
*967 FILLER_32_139
*968 FILLER_32_141
*969 FILLER_32_149
*970 FILLER_32_159
*971 FILLER_32_171
*972 FILLER_32_179
*973 FILLER_32_191
*974 FILLER_32_195
*975 FILLER_32_50
*976 FILLER_32_63
*977 FILLER_32_75
*978 FILLER_32_83
*979 FILLER_32_85
*980 FILLER_32_97
*981 FILLER_33_108
*982 FILLER_33_113
*983 FILLER_33_125
*984 FILLER_33_138
*985 FILLER_33_166
*986 FILLER_33_169
*987 FILLER_33_200
*988 FILLER_33_22
*989 FILLER_33_225
*990 FILLER_33_229
*991 FILLER_33_251
*992 FILLER_33_3
*993 FILLER_33_33
*994 FILLER_33_44
*995 FILLER_33_66
*996 FILLER_33_78
*997 FILLER_33_90
*998 FILLER_33_98
*999 FILLER_34_109
*1000 FILLER_34_194
*1001 FILLER_34_197
*1002 FILLER_34_21
*1003 FILLER_34_239
*1004 FILLER_34_253
*1005 FILLER_34_27
*1006 FILLER_34_29
*1007 FILLER_34_33
*1008 FILLER_34_61
*1009 FILLER_34_83
*1010 FILLER_34_9
*1011 FILLER_34_91
*1012 FILLER_35_108
*1013 FILLER_35_143
*1014 FILLER_35_15
*1015 FILLER_35_167
*1016 FILLER_35_183
*1017 FILLER_35_206
*1018 FILLER_35_218
*1019 FILLER_35_225
*1020 FILLER_35_25
*1021 FILLER_35_3
*1022 FILLER_35_57
*1023 FILLER_36_107
*1024 FILLER_36_113
*1025 FILLER_36_136
*1026 FILLER_36_147
*1027 FILLER_36_153
*1028 FILLER_36_165
*1029 FILLER_36_176
*1030 FILLER_36_182
*1031 FILLER_36_195
*1032 FILLER_36_200
*1033 FILLER_36_246
*1034 FILLER_36_25
*1035 FILLER_36_253
*1036 FILLER_36_29
*1037 FILLER_36_3
*1038 FILLER_36_48
*1039 FILLER_36_94
*1040 FILLER_37_109
*1041 FILLER_37_136
*1042 FILLER_37_148
*1043 FILLER_37_160
*1044 FILLER_37_169
*1045 FILLER_37_194
*1046 FILLER_37_203
*1047 FILLER_37_215
*1048 FILLER_37_223
*1049 FILLER_37_225
*1050 FILLER_37_237
*1051 FILLER_37_249
*1052 FILLER_37_3
*1053 FILLER_37_54
*1054 FILLER_37_57
*1055 FILLER_37_69
*1056 FILLER_37_7
*1057 FILLER_37_77
*1058 FILLER_37_97
*1059 FILLER_38_111
*1060 FILLER_38_122
*1061 FILLER_38_134
*1062 FILLER_38_150
*1063 FILLER_38_202
*1064 FILLER_38_208
*1065 FILLER_38_22
*1066 FILLER_38_220
*1067 FILLER_38_241
*1068 FILLER_38_249
*1069 FILLER_38_253
*1070 FILLER_38_3
*1071 FILLER_38_38
*1072 FILLER_38_50
*1073 FILLER_38_63
*1074 FILLER_38_75
*1075 FILLER_38_85
*1076 FILLER_38_89
*1077 FILLER_38_99
*1078 FILLER_39_11
*1079 FILLER_39_122
*1080 FILLER_39_167
*1081 FILLER_39_178
*1082 FILLER_39_182
*1083 FILLER_39_219
*1084 FILLER_39_22
*1085 FILLER_39_223
*1086 FILLER_39_225
*1087 FILLER_39_237
*1088 FILLER_39_249
*1089 FILLER_39_3
*1090 FILLER_39_34
*1091 FILLER_39_46
*1092 FILLER_39_57
*1093 FILLER_39_79
*1094 FILLER_3_113
*1095 FILLER_3_117
*1096 FILLER_3_148
*1097 FILLER_3_15
*1098 FILLER_3_156
*1099 FILLER_3_190
*1100 FILLER_3_202
*1101 FILLER_3_214
*1102 FILLER_3_222
*1103 FILLER_3_225
*1104 FILLER_3_237
*1105 FILLER_3_249
*1106 FILLER_3_27
*1107 FILLER_3_3
*1108 FILLER_3_39
*1109 FILLER_3_78
*1110 FILLER_40_118
*1111 FILLER_40_137
*1112 FILLER_40_141
*1113 FILLER_40_174
*1114 FILLER_40_186
*1115 FILLER_40_192
*1116 FILLER_40_197
*1117 FILLER_40_201
*1118 FILLER_40_21
*1119 FILLER_40_248
*1120 FILLER_40_253
*1121 FILLER_40_27
*1122 FILLER_40_29
*1123 FILLER_40_41
*1124 FILLER_40_59
*1125 FILLER_40_81
*1126 FILLER_40_85
*1127 FILLER_40_9
*1128 FILLER_41_111
*1129 FILLER_41_113
*1130 FILLER_41_125
*1131 FILLER_41_143
*1132 FILLER_41_15
*1133 FILLER_41_155
*1134 FILLER_41_185
*1135 FILLER_41_197
*1136 FILLER_41_205
*1137 FILLER_41_210
*1138 FILLER_41_218
*1139 FILLER_41_225
*1140 FILLER_41_237
*1141 FILLER_41_249
*1142 FILLER_41_27
*1143 FILLER_41_3
*1144 FILLER_41_39
*1145 FILLER_41_51
*1146 FILLER_41_55
*1147 FILLER_41_57
*1148 FILLER_41_84
*1149 FILLER_42_107
*1150 FILLER_42_119
*1151 FILLER_42_123
*1152 FILLER_42_141
*1153 FILLER_42_15
*1154 FILLER_42_185
*1155 FILLER_42_193
*1156 FILLER_42_197
*1157 FILLER_42_209
*1158 FILLER_42_221
*1159 FILLER_42_233
*1160 FILLER_42_245
*1161 FILLER_42_251
*1162 FILLER_42_253
*1163 FILLER_42_27
*1164 FILLER_42_29
*1165 FILLER_42_3
*1166 FILLER_42_41
*1167 FILLER_42_63
*1168 FILLER_42_74
*1169 FILLER_42_82
*1170 FILLER_42_85
*1171 FILLER_43_109
*1172 FILLER_43_113
*1173 FILLER_43_137
*1174 FILLER_43_141
*1175 FILLER_43_146
*1176 FILLER_43_15
*1177 FILLER_43_153
*1178 FILLER_43_160
*1179 FILLER_43_167
*1180 FILLER_43_169
*1181 FILLER_43_174
*1182 FILLER_43_181
*1183 FILLER_43_191
*1184 FILLER_43_195
*1185 FILLER_43_197
*1186 FILLER_43_209
*1187 FILLER_43_221
*1188 FILLER_43_225
*1189 FILLER_43_237
*1190 FILLER_43_249
*1191 FILLER_43_253
*1192 FILLER_43_27
*1193 FILLER_43_29
*1194 FILLER_43_3
*1195 FILLER_43_41
*1196 FILLER_43_53
*1197 FILLER_43_57
*1198 FILLER_43_69
*1199 FILLER_43_81
*1200 FILLER_43_85
*1201 FILLER_43_97
*1202 FILLER_4_103
*1203 FILLER_4_113
*1204 FILLER_4_125
*1205 FILLER_4_137
*1206 FILLER_4_141
*1207 FILLER_4_15
*1208 FILLER_4_153
*1209 FILLER_4_165
*1210 FILLER_4_178
*1211 FILLER_4_190
*1212 FILLER_4_197
*1213 FILLER_4_209
*1214 FILLER_4_221
*1215 FILLER_4_233
*1216 FILLER_4_245
*1217 FILLER_4_251
*1218 FILLER_4_253
*1219 FILLER_4_27
*1220 FILLER_4_29
*1221 FILLER_4_3
*1222 FILLER_4_41
*1223 FILLER_4_58
*1224 FILLER_4_62
*1225 FILLER_4_72
*1226 FILLER_4_85
*1227 FILLER_4_97
*1228 FILLER_5_111
*1229 FILLER_5_113
*1230 FILLER_5_125
*1231 FILLER_5_137
*1232 FILLER_5_149
*1233 FILLER_5_15
*1234 FILLER_5_161
*1235 FILLER_5_167
*1236 FILLER_5_169
*1237 FILLER_5_181
*1238 FILLER_5_193
*1239 FILLER_5_205
*1240 FILLER_5_21
*1241 FILLER_5_217
*1242 FILLER_5_223
*1243 FILLER_5_225
*1244 FILLER_5_237
*1245 FILLER_5_249
*1246 FILLER_5_3
*1247 FILLER_5_38
*1248 FILLER_5_42
*1249 FILLER_5_52
*1250 FILLER_5_68
*1251 FILLER_5_80
*1252 FILLER_5_88
*1253 FILLER_5_99
*1254 FILLER_6_122
*1255 FILLER_6_126
*1256 FILLER_6_136
*1257 FILLER_6_141
*1258 FILLER_6_145
*1259 FILLER_6_15
*1260 FILLER_6_171
*1261 FILLER_6_183
*1262 FILLER_6_195
*1263 FILLER_6_197
*1264 FILLER_6_209
*1265 FILLER_6_221
*1266 FILLER_6_233
*1267 FILLER_6_245
*1268 FILLER_6_251
*1269 FILLER_6_253
*1270 FILLER_6_27
*1271 FILLER_6_29
*1272 FILLER_6_3
*1273 FILLER_6_69
*1274 FILLER_6_77
*1275 FILLER_6_85
*1276 FILLER_6_98
*1277 FILLER_7_113
*1278 FILLER_7_137
*1279 FILLER_7_15
*1280 FILLER_7_185
*1281 FILLER_7_197
*1282 FILLER_7_209
*1283 FILLER_7_221
*1284 FILLER_7_225
*1285 FILLER_7_237
*1286 FILLER_7_249
*1287 FILLER_7_3
*1288 FILLER_7_57
*1289 FILLER_7_95
*1290 FILLER_8_106
*1291 FILLER_8_138
*1292 FILLER_8_15
*1293 FILLER_8_152
*1294 FILLER_8_156
*1295 FILLER_8_187
*1296 FILLER_8_195
*1297 FILLER_8_197
*1298 FILLER_8_209
*1299 FILLER_8_221
*1300 FILLER_8_233
*1301 FILLER_8_245
*1302 FILLER_8_251
*1303 FILLER_8_253
*1304 FILLER_8_27
*1305 FILLER_8_29
*1306 FILLER_8_3
*1307 FILLER_8_53
*1308 FILLER_9_100
*1309 FILLER_9_113
*1310 FILLER_9_133
*1311 FILLER_9_139
*1312 FILLER_9_15
*1313 FILLER_9_164
*1314 FILLER_9_187
*1315 FILLER_9_199
*1316 FILLER_9_211
*1317 FILLER_9_223
*1318 FILLER_9_225
*1319 FILLER_9_237
*1320 FILLER_9_249
*1321 FILLER_9_27
*1322 FILLER_9_3
*1323 FILLER_9_37
*1324 FILLER_9_45
*1325 FILLER_9_57
*1326 FILLER_9_83
*1327 PHY_EDGE_ROW_0_Left_44
*1328 PHY_EDGE_ROW_0_Right_0
*1329 PHY_EDGE_ROW_10_Left_54
*1330 PHY_EDGE_ROW_10_Right_10
*1331 PHY_EDGE_ROW_11_Left_55
*1332 PHY_EDGE_ROW_11_Right_11
*1333 PHY_EDGE_ROW_12_Left_56
*1334 PHY_EDGE_ROW_12_Right_12
*1335 PHY_EDGE_ROW_13_Left_57
*1336 PHY_EDGE_ROW_13_Right_13
*1337 PHY_EDGE_ROW_14_Left_58
*1338 PHY_EDGE_ROW_14_Right_14
*1339 PHY_EDGE_ROW_15_Left_59
*1340 PHY_EDGE_ROW_15_Right_15
*1341 PHY_EDGE_ROW_16_Left_60
*1342 PHY_EDGE_ROW_16_Right_16
*1343 PHY_EDGE_ROW_17_Left_61
*1344 PHY_EDGE_ROW_17_Right_17
*1345 PHY_EDGE_ROW_18_Left_62
*1346 PHY_EDGE_ROW_18_Right_18
*1347 PHY_EDGE_ROW_19_Left_63
*1348 PHY_EDGE_ROW_19_Right_19
*1349 PHY_EDGE_ROW_1_Left_45
*1350 PHY_EDGE_ROW_1_Right_1
*1351 PHY_EDGE_ROW_20_Left_64
*1352 PHY_EDGE_ROW_20_Right_20
*1353 PHY_EDGE_ROW_21_Left_65
*1354 PHY_EDGE_ROW_21_Right_21
*1355 PHY_EDGE_ROW_22_Left_66
*1356 PHY_EDGE_ROW_22_Right_22
*1357 PHY_EDGE_ROW_23_Left_67
*1358 PHY_EDGE_ROW_23_Right_23
*1359 PHY_EDGE_ROW_24_Left_68
*1360 PHY_EDGE_ROW_24_Right_24
*1361 PHY_EDGE_ROW_25_Left_69
*1362 PHY_EDGE_ROW_25_Right_25
*1363 PHY_EDGE_ROW_26_Left_70
*1364 PHY_EDGE_ROW_26_Right_26
*1365 PHY_EDGE_ROW_27_Left_71
*1366 PHY_EDGE_ROW_27_Right_27
*1367 PHY_EDGE_ROW_28_Left_72
*1368 PHY_EDGE_ROW_28_Right_28
*1369 PHY_EDGE_ROW_29_Left_73
*1370 PHY_EDGE_ROW_29_Right_29
*1371 PHY_EDGE_ROW_2_Left_46
*1372 PHY_EDGE_ROW_2_Right_2
*1373 PHY_EDGE_ROW_30_Left_74
*1374 PHY_EDGE_ROW_30_Right_30
*1375 PHY_EDGE_ROW_31_Left_75
*1376 PHY_EDGE_ROW_31_Right_31
*1377 PHY_EDGE_ROW_32_Left_76
*1378 PHY_EDGE_ROW_32_Right_32
*1379 PHY_EDGE_ROW_33_Left_77
*1380 PHY_EDGE_ROW_33_Right_33
*1381 PHY_EDGE_ROW_34_Left_78
*1382 PHY_EDGE_ROW_34_Right_34
*1383 PHY_EDGE_ROW_35_Left_79
*1384 PHY_EDGE_ROW_35_Right_35
*1385 PHY_EDGE_ROW_36_Left_80
*1386 PHY_EDGE_ROW_36_Right_36
*1387 PHY_EDGE_ROW_37_Left_81
*1388 PHY_EDGE_ROW_37_Right_37
*1389 PHY_EDGE_ROW_38_Left_82
*1390 PHY_EDGE_ROW_38_Right_38
*1391 PHY_EDGE_ROW_39_Left_83
*1392 PHY_EDGE_ROW_39_Right_39
*1393 PHY_EDGE_ROW_3_Left_47
*1394 PHY_EDGE_ROW_3_Right_3
*1395 PHY_EDGE_ROW_40_Left_84
*1396 PHY_EDGE_ROW_40_Right_40
*1397 PHY_EDGE_ROW_41_Left_85
*1398 PHY_EDGE_ROW_41_Right_41
*1399 PHY_EDGE_ROW_42_Left_86
*1400 PHY_EDGE_ROW_42_Right_42
*1401 PHY_EDGE_ROW_43_Left_87
*1402 PHY_EDGE_ROW_43_Right_43
*1403 PHY_EDGE_ROW_4_Left_48
*1404 PHY_EDGE_ROW_4_Right_4
*1405 PHY_EDGE_ROW_5_Left_49
*1406 PHY_EDGE_ROW_5_Right_5
*1407 PHY_EDGE_ROW_6_Left_50
*1408 PHY_EDGE_ROW_6_Right_6
*1409 PHY_EDGE_ROW_7_Left_51
*1410 PHY_EDGE_ROW_7_Right_7
*1411 PHY_EDGE_ROW_8_Left_52
*1412 PHY_EDGE_ROW_8_Right_8
*1413 PHY_EDGE_ROW_9_Left_53
*1414 PHY_EDGE_ROW_9_Right_9
*1415 TAP_TAPCELL_ROW_0_88
*1416 TAP_TAPCELL_ROW_0_89
*1417 TAP_TAPCELL_ROW_0_90
*1418 TAP_TAPCELL_ROW_0_91
*1419 TAP_TAPCELL_ROW_0_92
*1420 TAP_TAPCELL_ROW_0_93
*1421 TAP_TAPCELL_ROW_0_94
*1422 TAP_TAPCELL_ROW_0_95
*1423 TAP_TAPCELL_ROW_0_96
*1424 TAP_TAPCELL_ROW_10_137
*1425 TAP_TAPCELL_ROW_10_138
*1426 TAP_TAPCELL_ROW_10_139
*1427 TAP_TAPCELL_ROW_10_140
*1428 TAP_TAPCELL_ROW_10_141
*1429 TAP_TAPCELL_ROW_11_142
*1430 TAP_TAPCELL_ROW_11_143
*1431 TAP_TAPCELL_ROW_11_144
*1432 TAP_TAPCELL_ROW_11_145
*1433 TAP_TAPCELL_ROW_12_146
*1434 TAP_TAPCELL_ROW_12_147
*1435 TAP_TAPCELL_ROW_12_148
*1436 TAP_TAPCELL_ROW_12_149
*1437 TAP_TAPCELL_ROW_12_150
*1438 TAP_TAPCELL_ROW_13_151
*1439 TAP_TAPCELL_ROW_13_152
*1440 TAP_TAPCELL_ROW_13_153
*1441 TAP_TAPCELL_ROW_13_154
*1442 TAP_TAPCELL_ROW_14_155
*1443 TAP_TAPCELL_ROW_14_156
*1444 TAP_TAPCELL_ROW_14_157
*1445 TAP_TAPCELL_ROW_14_158
*1446 TAP_TAPCELL_ROW_14_159
*1447 TAP_TAPCELL_ROW_15_160
*1448 TAP_TAPCELL_ROW_15_161
*1449 TAP_TAPCELL_ROW_15_162
*1450 TAP_TAPCELL_ROW_15_163
*1451 TAP_TAPCELL_ROW_16_164
*1452 TAP_TAPCELL_ROW_16_165
*1453 TAP_TAPCELL_ROW_16_166
*1454 TAP_TAPCELL_ROW_16_167
*1455 TAP_TAPCELL_ROW_16_168
*1456 TAP_TAPCELL_ROW_17_169
*1457 TAP_TAPCELL_ROW_17_170
*1458 TAP_TAPCELL_ROW_17_171
*1459 TAP_TAPCELL_ROW_17_172
*1460 TAP_TAPCELL_ROW_18_173
*1461 TAP_TAPCELL_ROW_18_174
*1462 TAP_TAPCELL_ROW_18_175
*1463 TAP_TAPCELL_ROW_18_176
*1464 TAP_TAPCELL_ROW_18_177
*1465 TAP_TAPCELL_ROW_19_178
*1466 TAP_TAPCELL_ROW_19_179
*1467 TAP_TAPCELL_ROW_19_180
*1468 TAP_TAPCELL_ROW_19_181
*1469 TAP_TAPCELL_ROW_1_100
*1470 TAP_TAPCELL_ROW_1_97
*1471 TAP_TAPCELL_ROW_1_98
*1472 TAP_TAPCELL_ROW_1_99
*1473 TAP_TAPCELL_ROW_20_182
*1474 TAP_TAPCELL_ROW_20_183
*1475 TAP_TAPCELL_ROW_20_184
*1476 TAP_TAPCELL_ROW_20_185
*1477 TAP_TAPCELL_ROW_20_186
*1478 TAP_TAPCELL_ROW_21_187
*1479 TAP_TAPCELL_ROW_21_188
*1480 TAP_TAPCELL_ROW_21_189
*1481 TAP_TAPCELL_ROW_21_190
*1482 TAP_TAPCELL_ROW_22_191
*1483 TAP_TAPCELL_ROW_22_192
*1484 TAP_TAPCELL_ROW_22_193
*1485 TAP_TAPCELL_ROW_22_194
*1486 TAP_TAPCELL_ROW_22_195
*1487 TAP_TAPCELL_ROW_23_196
*1488 TAP_TAPCELL_ROW_23_197
*1489 TAP_TAPCELL_ROW_23_198
*1490 TAP_TAPCELL_ROW_23_199
*1491 TAP_TAPCELL_ROW_24_200
*1492 TAP_TAPCELL_ROW_24_201
*1493 TAP_TAPCELL_ROW_24_202
*1494 TAP_TAPCELL_ROW_24_203
*1495 TAP_TAPCELL_ROW_24_204
*1496 TAP_TAPCELL_ROW_25_205
*1497 TAP_TAPCELL_ROW_25_206
*1498 TAP_TAPCELL_ROW_25_207
*1499 TAP_TAPCELL_ROW_25_208
*1500 TAP_TAPCELL_ROW_26_209
*1501 TAP_TAPCELL_ROW_26_210
*1502 TAP_TAPCELL_ROW_26_211
*1503 TAP_TAPCELL_ROW_26_212
*1504 TAP_TAPCELL_ROW_26_213
*1505 TAP_TAPCELL_ROW_27_214
*1506 TAP_TAPCELL_ROW_27_215
*1507 TAP_TAPCELL_ROW_27_216
*1508 TAP_TAPCELL_ROW_27_217
*1509 TAP_TAPCELL_ROW_28_218
*1510 TAP_TAPCELL_ROW_28_219
*1511 TAP_TAPCELL_ROW_28_220
*1512 TAP_TAPCELL_ROW_28_221
*1513 TAP_TAPCELL_ROW_28_222
*1514 TAP_TAPCELL_ROW_29_223
*1515 TAP_TAPCELL_ROW_29_224
*1516 TAP_TAPCELL_ROW_29_225
*1517 TAP_TAPCELL_ROW_29_226
*1518 TAP_TAPCELL_ROW_2_101
*1519 TAP_TAPCELL_ROW_2_102
*1520 TAP_TAPCELL_ROW_2_103
*1521 TAP_TAPCELL_ROW_2_104
*1522 TAP_TAPCELL_ROW_2_105
*1523 TAP_TAPCELL_ROW_30_227
*1524 TAP_TAPCELL_ROW_30_228
*1525 TAP_TAPCELL_ROW_30_229
*1526 TAP_TAPCELL_ROW_30_230
*1527 TAP_TAPCELL_ROW_30_231
*1528 TAP_TAPCELL_ROW_31_232
*1529 TAP_TAPCELL_ROW_31_233
*1530 TAP_TAPCELL_ROW_31_234
*1531 TAP_TAPCELL_ROW_31_235
*1532 TAP_TAPCELL_ROW_32_236
*1533 TAP_TAPCELL_ROW_32_237
*1534 TAP_TAPCELL_ROW_32_238
*1535 TAP_TAPCELL_ROW_32_239
*1536 TAP_TAPCELL_ROW_32_240
*1537 TAP_TAPCELL_ROW_33_241
*1538 TAP_TAPCELL_ROW_33_242
*1539 TAP_TAPCELL_ROW_33_243
*1540 TAP_TAPCELL_ROW_33_244
*1541 TAP_TAPCELL_ROW_34_245
*1542 TAP_TAPCELL_ROW_34_246
*1543 TAP_TAPCELL_ROW_34_247
*1544 TAP_TAPCELL_ROW_34_248
*1545 TAP_TAPCELL_ROW_34_249
*1546 TAP_TAPCELL_ROW_35_250
*1547 TAP_TAPCELL_ROW_35_251
*1548 TAP_TAPCELL_ROW_35_252
*1549 TAP_TAPCELL_ROW_35_253
*1550 TAP_TAPCELL_ROW_36_254
*1551 TAP_TAPCELL_ROW_36_255
*1552 TAP_TAPCELL_ROW_36_256
*1553 TAP_TAPCELL_ROW_36_257
*1554 TAP_TAPCELL_ROW_36_258
*1555 TAP_TAPCELL_ROW_37_259
*1556 TAP_TAPCELL_ROW_37_260
*1557 TAP_TAPCELL_ROW_37_261
*1558 TAP_TAPCELL_ROW_37_262
*1559 TAP_TAPCELL_ROW_38_263
*1560 TAP_TAPCELL_ROW_38_264
*1561 TAP_TAPCELL_ROW_38_265
*1562 TAP_TAPCELL_ROW_38_266
*1563 TAP_TAPCELL_ROW_38_267
*1564 TAP_TAPCELL_ROW_39_268
*1565 TAP_TAPCELL_ROW_39_269
*1566 TAP_TAPCELL_ROW_39_270
*1567 TAP_TAPCELL_ROW_39_271
*1568 TAP_TAPCELL_ROW_3_106
*1569 TAP_TAPCELL_ROW_3_107
*1570 TAP_TAPCELL_ROW_3_108
*1571 TAP_TAPCELL_ROW_3_109
*1572 TAP_TAPCELL_ROW_40_272
*1573 TAP_TAPCELL_ROW_40_273
*1574 TAP_TAPCELL_ROW_40_274
*1575 TAP_TAPCELL_ROW_40_275
*1576 TAP_TAPCELL_ROW_40_276
*1577 TAP_TAPCELL_ROW_41_277
*1578 TAP_TAPCELL_ROW_41_278
*1579 TAP_TAPCELL_ROW_41_279
*1580 TAP_TAPCELL_ROW_41_280
*1581 TAP_TAPCELL_ROW_42_281
*1582 TAP_TAPCELL_ROW_42_282
*1583 TAP_TAPCELL_ROW_42_283
*1584 TAP_TAPCELL_ROW_42_284
*1585 TAP_TAPCELL_ROW_42_285
*1586 TAP_TAPCELL_ROW_43_286
*1587 TAP_TAPCELL_ROW_43_287
*1588 TAP_TAPCELL_ROW_43_288
*1589 TAP_TAPCELL_ROW_43_289
*1590 TAP_TAPCELL_ROW_43_290
*1591 TAP_TAPCELL_ROW_43_291
*1592 TAP_TAPCELL_ROW_43_292
*1593 TAP_TAPCELL_ROW_43_293
*1594 TAP_TAPCELL_ROW_43_294
*1595 TAP_TAPCELL_ROW_4_110
*1596 TAP_TAPCELL_ROW_4_111
*1597 TAP_TAPCELL_ROW_4_112
*1598 TAP_TAPCELL_ROW_4_113
*1599 TAP_TAPCELL_ROW_4_114
*1600 TAP_TAPCELL_ROW_5_115
*1601 TAP_TAPCELL_ROW_5_116
*1602 TAP_TAPCELL_ROW_5_117
*1603 TAP_TAPCELL_ROW_5_118
*1604 TAP_TAPCELL_ROW_6_119
*1605 TAP_TAPCELL_ROW_6_120
*1606 TAP_TAPCELL_ROW_6_121
*1607 TAP_TAPCELL_ROW_6_122
*1608 TAP_TAPCELL_ROW_6_123
*1609 TAP_TAPCELL_ROW_7_124
*1610 TAP_TAPCELL_ROW_7_125
*1611 TAP_TAPCELL_ROW_7_126
*1612 TAP_TAPCELL_ROW_7_127
*1613 TAP_TAPCELL_ROW_8_128
*1614 TAP_TAPCELL_ROW_8_129
*1615 TAP_TAPCELL_ROW_8_130
*1616 TAP_TAPCELL_ROW_8_131
*1617 TAP_TAPCELL_ROW_8_132
*1618 TAP_TAPCELL_ROW_9_133
*1619 TAP_TAPCELL_ROW_9_134
*1620 TAP_TAPCELL_ROW_9_135
*1621 TAP_TAPCELL_ROW_9_136
*1622 _252_
*1623 _253_
*1624 _254_
*1625 _255_
*1626 _256_
*1627 _257_
*1628 _258_
*1629 _259_
*1630 _260_
*1631 _261_
*1632 _262_
*1633 _263_
*1634 _264_
*1635 _265_
*1636 _266_
*1637 _267_
*1638 _268_
*1639 _269_
*1640 _270_
*1641 _271_
*1642 _272_
*1643 _273_
*1644 _274_
*1645 _275_
*1646 _276_
*1647 _277_
*1648 _278_
*1649 _279_
*1650 _280_
*1651 _281_
*1652 _282_
*1653 _283_
*1654 _284_
*1655 _285_
*1656 _286_
*1657 _287_
*1658 _288_
*1659 _289_
*1660 _290_
*1661 _291_
*1662 _292_
*1663 _293_
*1664 _294_
*1665 _295_
*1666 _296_
*1667 _297_
*1668 _298_
*1669 _299_
*1670 _300_
*1671 _301_
*1672 _302_
*1673 _303_
*1674 _304_
*1675 _305_
*1676 _306_
*1677 _307_
*1678 _308_
*1679 _309_
*1680 _310_
*1681 _311_
*1682 _312_
*1683 _313_
*1684 _314_
*1685 _315_
*1686 _316_
*1687 _317_
*1688 _318_
*1689 _319_
*1690 _320_
*1691 _321_
*1692 _322_
*1693 _323_
*1694 _324_
*1695 _325_
*1696 _326_
*1697 _327_
*1698 _328_
*1699 _329_
*1700 _330_
*1701 _331_
*1702 _332_
*1703 _333_
*1704 _334_
*1705 _335_
*1706 _336_
*1707 _337_
*1708 _338_
*1709 _339_
*1710 _340_
*1711 _341_
*1712 _342_
*1713 _343_
*1714 _344_
*1715 _345_
*1716 _346_
*1717 _347_
*1718 _348_
*1719 _349_
*1720 _350_
*1721 _351_
*1722 _352_
*1723 _353_
*1724 _354_
*1725 _355_
*1726 _356_
*1727 _357_
*1728 _358_
*1729 _359_
*1730 _360_
*1731 _361_
*1732 _362_
*1733 _363_
*1734 _364_
*1735 _365_
*1736 _366_
*1737 _367_
*1738 _368_
*1739 _369_
*1740 _370_
*1741 _371_
*1742 _372_
*1743 _373_
*1744 _374_
*1745 _375_
*1746 _376_
*1747 _377_
*1748 _378_
*1749 _379_
*1750 _380_
*1751 _381_
*1752 _382_
*1753 _383_
*1754 _384_
*1755 _385_
*1756 _386_
*1757 _387_
*1758 _388_
*1759 _389_
*1760 _390_
*1761 _391_
*1762 _392_
*1763 _393_
*1764 _394_
*1765 _395_
*1766 _396_
*1767 _397_
*1768 _398_
*1769 _399_
*1770 _400_
*1771 _401_
*1772 _402_
*1773 _403_
*1774 _404_
*1775 _405_
*1776 _406_
*1777 _407_
*1778 _408_
*1779 _409_
*1780 _410_
*1781 _411_
*1782 _412_
*1783 _413_
*1784 _414_
*1785 _415_
*1786 _416_
*1787 _417_
*1788 _418_
*1789 _419_
*1790 _420_
*1791 _421_
*1792 _422_
*1793 _423_
*1794 _424_
*1795 _425_
*1796 _426_
*1797 _427_
*1798 _428_
*1799 _429_
*1800 _430_
*1801 _431_
*1802 _432_
*1803 _433_
*1804 _434_
*1805 _435_
*1806 _436_
*1807 _437_
*1808 _438_
*1809 _439_
*1810 _440_
*1811 _441_
*1812 _442_
*1813 _443_
*1814 _444_
*1815 _445_
*1816 _446_
*1817 _447_
*1818 _448_
*1819 _449_
*1820 _450_
*1821 _451_
*1822 _452_
*1823 _453_
*1824 _454_
*1825 _455_
*1826 _456_
*1827 _457_
*1828 _458_
*1829 _459_
*1830 _460_
*1831 _461_
*1832 _462_
*1833 _463_
*1834 _464_
*1835 _465_
*1836 _466_
*1837 _467_
*1838 _468_
*1839 _469_
*1840 _470_
*1841 _471_
*1842 _472_
*1843 _473_
*1844 _474_
*1845 _475_
*1846 _476_
*1847 _477_
*1848 _478_
*1849 _479_
*1850 _480_
*1851 _481_
*1852 _482_
*1853 _483_
*1854 _484_
*1855 _485_
*1856 _486_
*1857 _487_
*1858 _488_
*1859 _489_
*1860 _490_
*1861 _491_
*1862 _492_
*1863 _493_
*1864 _494_
*1865 _495_
*1866 _496_
*1867 _497_
*1868 _498_
*1869 _499_
*1870 _500_
*1871 _501_
*1872 _502_
*1873 _503_
*1874 _504_
*1875 _505_
*1876 _506_
*1877 _507_
*1878 _508_
*1879 _509_
*1880 _510_
*1881 _511_
*1882 _512_
*1883 _513_
*1884 _514_
*1885 _515_
*1886 _516_
*1887 _517_
*1888 _518_
*1889 _519_
*1890 _520_
*1891 _521_
*1892 _522_
*1893 _523_
*1894 _524_
*1895 _525_
*1896 _526_
*1897 _527_
*1898 _528_
*1899 _529_
*1900 _530_
*1901 _531_
*1902 _532_
*1903 _533_
*1904 _534_
*1905 _535_
*1906 _536_
*1907 _537_
*1908 _538_
*1909 _539_
*1910 _540_
*1911 _541_
*1912 _542_
*1913 _543_
*1914 _544_
*1915 _545_
*1916 _546_
*1917 _547_
*1918 _548_
*1919 _549_
*1920 _550_
*1921 _551_
*1922 _552_
*1923 _553_
*1924 _554_
*1925 _555_
*1926 _556_
*1927 _557_
*1928 _558_
*1929 _559_
*1930 _560_
*1931 _561_
*1932 _562_
*1933 _563_
*1934 _564_
*1935 _565_
*1936 _566_
*1937 _567_
*1938 _568_
*1939 _569_
*1940 _570_
*1941 _571_
*1942 _572_
*1943 _573_
*1944 _574_
*1945 _575_
*1946 _576_
*1947 _577_
*1948 _578_
*1949 _579_
*1950 _580_
*1951 _581_
*1952 _582_
*1953 _583_
*1954 _584_
*1955 _585_
*1956 _586_
*1957 _587_
*1958 _588_
*1959 _589_
*1960 _590_
*1961 _591_
*1962 _592_
*1963 _593_
*1964 _594_
*1965 _595_
*1966 _596_
*1967 _597_
*1968 _598_
*1969 _599_
*1970 _600_
*1971 _601_
*1972 _602_
*1973 _603_
*1974 _604_
*1975 _605_
*1976 _606_
*1977 _607_
*1978 _608_
*1979 _609_
*1980 _610_
*1981 _611_
*1982 _612_
*1983 _613_
*1984 _614_
*1985 _615_
*1986 _616_
*1987 _617_
*1988 _618_
*1989 _619_
*1990 _620_
*1991 _621_
*1992 _622_
*1993 _623_
*1994 _624_
*1995 _625_
*1996 _626_
*1997 _627_
*1998 _628_
*1999 _629_
*2000 _630_
*2001 _631_
*2002 _632_
*2003 _633_
*2004 _634_
*2005 _635_
*2006 _636_
*2007 _637_
*2008 _638_
*2009 _639_
*2010 _640_
*2011 _641_
*2012 _642_
*2013 _643_
*2014 _644_
*2015 _645_
*2016 _646_
*2017 _647_
*2018 _648_
*2019 _649_
*2020 _650_
*2021 _651_
*2022 _652_
*2023 _653_
*2024 _654_
*2025 _655_
*2026 _656_
*2027 _657_
*2028 _658_
*2029 _659_
*2030 _660_
*2031 _661_
*2032 _662_
*2033 _663_
*2034 _664_
*2035 _665_
*2036 _666_
*2037 _667_
*2038 _668_
*2039 _669_
*2040 _670_
*2041 _671_
*2042 _672_
*2043 _673_
*2044 _674_
*2045 _675_
*2046 _676_
*2047 _677_
*2048 _678_
*2049 _679_
*2050 _680_
*2051 _681_
*2052 _682_
*2053 _683_
*2054 _684_
*2055 _685_
*2056 _686_
*2057 _687_
*2058 _688_
*2059 _689_
*2060 _690_
*2061 _691_
*2062 _692_
*2063 _693_
*2064 _694_
*2065 _695_
*2066 _696_
*2067 _697_
*2068 clkbuf_0_rclk
*2069 clkbuf_0_wclk
*2070 clkbuf_1_0__f_rclk
*2071 clkbuf_1_1__f_rclk
*2072 clkbuf_4_0_0_wclk
*2073 clkbuf_4_10_0_wclk
*2074 clkbuf_4_11_0_wclk
*2075 clkbuf_4_12_0_wclk
*2076 clkbuf_4_13_0_wclk
*2077 clkbuf_4_14_0_wclk
*2078 clkbuf_4_15_0_wclk
*2079 clkbuf_4_1_0_wclk
*2080 clkbuf_4_2_0_wclk
*2081 clkbuf_4_3_0_wclk
*2082 clkbuf_4_4_0_wclk
*2083 clkbuf_4_5_0_wclk
*2084 clkbuf_4_6_0_wclk
*2085 clkbuf_4_7_0_wclk
*2086 clkbuf_4_8_0_wclk
*2087 clkbuf_4_9_0_wclk
*2088 clkload0
*2089 clkload1
*2090 clkload10
*2091 clkload11
*2092 clkload12
*2093 clkload13
*2094 clkload14
*2095 clkload15
*2096 clkload2
*2097 clkload3
*2098 clkload4
*2099 clkload5
*2100 clkload6
*2101 clkload7
*2102 clkload8
*2103 clkload9
*2104 input1
*2105 input10
*2106 input11
*2107 input12
*2108 input2
*2109 input3
*2110 input4
*2111 input5
*2112 input6
*2113 input7
*2114 input8
*2115 input9
*2116 max_cap23
*2117 output13
*2118 output14
*2119 output15
*2120 output16
*2121 output17
*2122 output18
*2123 output19
*2124 output20
*2125 output21
*2126 output22

*PORTS
empty O
full O
rclk I
rdata[0] O
rdata[1] O
rdata[2] O
rdata[3] O
rdata[4] O
rdata[5] O
rdata[6] O
rdata[7] O
ren I
rrst_n I
wclk I
wdata[0] I
wdata[1] I
wdata[2] I
wdata[3] I
wdata[4] I
wdata[5] I
wdata[6] I
wdata[7] I
wen I
wrst_n I

*D_NET *3 0.000602666
*CONN
*P empty O
*I *2117:X O *D sky130_fd_sc_hd__buf_1
*CAP
1 empty 0.000213572
2 *2117:X 0.000213572
3 empty *2104:A 7.5284e-05
4 empty *2108:A 6.56976e-05
5 empty *2117:A 3.454e-05
*RES
1 *2117:X empty 18.73 
*END

*D_NET *4 0.000584446
*CONN
*P full O
*I *2118:X O *D sky130_fd_sc_hd__buf_1
*CAP
1 full 0.000250642
2 *2118:X 0.000250642
3 full *2106:A 8.31618e-05
4 full *2107:A 0
5 full *438:12 0
*RES
1 *2118:X full 19.3371 
*END

*D_NET *5 0.00718434
*CONN
*P rclk I
*I *2068:A I *D sky130_fd_sc_hd__clkbuf_16
*CAP
1 rclk 0.00281071
2 *2068:A 0.00281071
3 *2068:A rdata[0] 8.31618e-05
4 *2068:A *1902:D 0
5 *2068:A *1905:D 5.56943e-05
6 *2068:A *1907:RESET_B 0.000254337
7 *2068:A *1999:RESET_B 0.000160136
8 *2068:A *2033:CLK 0
9 *2068:A *2033:D 0
10 *2068:A *2108:A 6.93817e-05
11 *2068:A *418:12 0
12 *2068:A *418:65 0
13 *2068:A *418:80 0
14 *2068:A *446:82 7.6644e-05
15 *2068:A *446:84 0.000297559
16 *2068:A *446:86 0.000154762
17 *2068:A *459:10 5.90443e-06
18 *2068:A *459:20 0.000405339
*RES
1 rclk *2068:A 47.0616 
*END

*D_NET *6 0.000436051
*CONN
*P rdata[0] O
*I *2119:X O *D sky130_fd_sc_hd__buf_1
*CAP
1 rdata[0] 0.000127484
2 *2119:X 0.000127484
3 rdata[0] rdata[5] 8.57347e-05
4 rdata[0] *2119:A 1.21859e-05
5 *2068:A rdata[0] 8.31618e-05
*RES
1 *2119:X rdata[0] 18.1229 
*END

*D_NET *7 0.000812096
*CONN
*P rdata[1] O
*I *2120:X O *D sky130_fd_sc_hd__buf_1
*CAP
1 rdata[1] 0.000406048
2 *2120:X 0.000406048
3 rdata[1] rdata[6] 0
4 rdata[1] *2110:A 0
*RES
1 *2120:X rdata[1] 21.8357 
*END

*D_NET *8 0.000812096
*CONN
*P rdata[2] O
*I *2121:X O *D sky130_fd_sc_hd__buf_1
*CAP
1 rdata[2] 0.000406048
2 *2121:X 0.000406048
3 rdata[2] rdata[3] 0
*RES
1 *2121:X rdata[2] 21.8357 
*END

*D_NET *9 0.000812096
*CONN
*P rdata[3] O
*I *2122:X O *D sky130_fd_sc_hd__buf_1
*CAP
1 rdata[3] 0.000406048
2 *2122:X 0.000406048
3 rdata[3] rdata[7] 0
4 rdata[2] rdata[3] 0
*RES
1 *2122:X rdata[3] 21.8357 
*END

*D_NET *10 0.000812096
*CONN
*P rdata[4] O
*I *2123:X O *D sky130_fd_sc_hd__buf_1
*CAP
1 rdata[4] 0.000406048
2 *2123:X 0.000406048
3 rdata[4] rdata[6] 0
4 rdata[4] rdata[7] 0
*RES
1 *2123:X rdata[4] 21.8357 
*END

*D_NET *11 0.000446341
*CONN
*P rdata[5] O
*I *2124:X O *D sky130_fd_sc_hd__buf_1
*CAP
1 rdata[5] 0.000180303
2 *2124:X 0.000180303
3 rdata[5] *1661:B 0
4 rdata[0] rdata[5] 8.57347e-05
*RES
1 *2124:X rdata[5] 18.4264 
*END

*D_NET *12 0.000812096
*CONN
*P rdata[6] O
*I *2125:X O *D sky130_fd_sc_hd__buf_1
*CAP
1 rdata[6] 0.000406048
2 *2125:X 0.000406048
3 rdata[1] rdata[6] 0
4 rdata[4] rdata[6] 0
*RES
1 *2125:X rdata[6] 21.8357 
*END

*D_NET *13 0.000812096
*CONN
*P rdata[7] O
*I *2126:X O *D sky130_fd_sc_hd__buf_1
*CAP
1 rdata[7] 0.000406048
2 *2126:X 0.000406048
3 rdata[3] rdata[7] 0
4 rdata[4] rdata[7] 0
*RES
1 *2126:X rdata[7] 21.8357 
*END

*D_NET *14 0.000826195
*CONN
*P ren I
*I *2104:A I *D sky130_fd_sc_hd__clkbuf_1
*CAP
1 ren 0.000375455
2 *2104:A 0.000375455
3 *2104:A *485:8 0
4 empty *2104:A 7.5284e-05
*RES
1 ren *2104:A 20.855 
*END

*D_NET *15 0.00160872
*CONN
*P rrst_n I
*I *2108:A I *D sky130_fd_sc_hd__clkbuf_8
*CAP
1 rrst_n 0.000704199
2 *2108:A 0.000704199
3 *2108:A *2117:A 6.52439e-05
4 empty *2108:A 6.56976e-05
5 *2068:A *2108:A 6.93817e-05
*RES
1 rrst_n *2108:A 28.6044 
*END

*D_NET *16 0.0138478
*CONN
*P wclk I
*I *2069:A I *D sky130_fd_sc_hd__clkbuf_16
*CAP
1 wclk 0.00247244
2 *2069:A 0.000491436
3 *16:31 0.00281585
4 *16:13 0.00479685
5 *2069:A *1639:A3 9.74668e-05
6 *2069:A *1882:A1 6.81335e-05
7 *2069:A *2057:D 1.64343e-05
8 *2069:A *416:20 0.00135001
9 *16:13 *2115:A 5.77714e-05
10 *16:31 *1770:A0 0.000398809
11 *16:31 *1770:A1 2.44318e-05
12 *16:31 *1959:D 0.000147136
13 *16:31 *1983:D 0.000186842
14 *16:31 *2054:CLK 0.000102207
15 *16:31 *2054:D 9.82585e-06
16 *16:31 *2057:CLK 0.000169373
17 *16:31 *396:14 2.17647e-05
18 *16:31 *416:20 0.000620978
*RES
1 wclk *16:13 48.7045 
2 *16:13 *16:31 47.2679 
3 *16:31 *2069:A 22.9786 
*END

*D_NET *17 0.000765244
*CONN
*P wdata[0] I
*I *2109:A I *D sky130_fd_sc_hd__clkbuf_4
*CAP
1 wdata[0] 0.000369792
2 *2109:A 0.000369792
3 *2109:A *2113:A 0
4 *2109:A *451:10 2.56601e-05
5 *2109:A *456:16 0
*RES
1 wdata[0] *2109:A 20.9964 
*END

*D_NET *18 0.000881994
*CONN
*P wdata[1] I
*I *2110:A I *D sky130_fd_sc_hd__clkbuf_4
*CAP
1 wdata[1] 0.000440997
2 *2110:A 0.000440997
3 rdata[1] *2110:A 0
*RES
1 wdata[1] *2110:A 22.55 
*END

*D_NET *19 0.000882149
*CONN
*P wdata[2] I
*I *2111:A I *D sky130_fd_sc_hd__clkbuf_4
*CAP
1 wdata[2] 0.000422712
2 *2111:A 0.000422712
3 *2111:A *2114:A 0
4 *2111:A *456:16 3.67257e-05
*RES
1 wdata[2] *2111:A 21.9429 
*END

*D_NET *20 0.000881994
*CONN
*P wdata[3] I
*I *2112:A I *D sky130_fd_sc_hd__clkbuf_4
*CAP
1 wdata[3] 0.000440997
2 *2112:A 0.000440997
*RES
1 wdata[3] *2112:A 22.55 
*END

*D_NET *21 0.00136573
*CONN
*P wdata[4] I
*I *2113:A I *D sky130_fd_sc_hd__clkbuf_4
*CAP
1 wdata[4] 0.000422905
2 *2113:A 0.000422905
3 *2113:A *1826:A0 5.52238e-05
4 *2113:A *1826:A1 0.000146591
5 *2113:A *455:14 0.000318101
6 *2109:A *2113:A 0
*RES
1 wdata[4] *2113:A 23.9964 
*END

*D_NET *22 0.000872551
*CONN
*P wdata[5] I
*I *2114:A I *D sky130_fd_sc_hd__clkbuf_4
*CAP
1 wdata[5] 0.000436276
2 *2114:A 0.000436276
3 *2111:A *2114:A 0
*RES
1 wdata[5] *2114:A 21.9429 
*END

*D_NET *23 0.000690228
*CONN
*P wdata[6] I
*I *2115:A I *D sky130_fd_sc_hd__clkbuf_4
*CAP
1 wdata[6] 0.000316228
2 *2115:A 0.000316228
3 *16:13 *2115:A 5.77714e-05
*RES
1 wdata[6] *2115:A 21.1946 
*END

*D_NET *24 0.000706219
*CONN
*P wdata[7] I
*I *2105:A I *D sky130_fd_sc_hd__clkbuf_4
*CAP
1 wdata[7] 0.000282978
2 *2105:A 0.000282978
3 *2105:A *1799:S 0.000140263
*RES
1 wdata[7] *2105:A 19.7128 
*END

*D_NET *25 0.000599207
*CONN
*P wen I
*I *2106:A I *D sky130_fd_sc_hd__clkbuf_1
*CAP
1 wen 0.000258023
2 *2106:A 0.000258023
3 *2106:A *1673:B 0
4 *2106:A *2118:A 0
5 full *2106:A 8.31618e-05
*RES
1 wen *2106:A 19.6407 
*END

*D_NET *26 0.000536202
*CONN
*P wrst_n I
*I *2107:A I *D sky130_fd_sc_hd__clkbuf_8
*CAP
1 wrst_n 0.000268101
2 *2107:A 0.000268101
3 full *2107:A 0
*RES
1 wrst_n *2107:A 19.0336 
*END

*D_NET *27 0.00540462
*CONN
*I *1912:D I *D sky130_fd_sc_hd__dfxtp_1
*I *1723:X O *D sky130_fd_sc_hd__a22o_1
*CAP
1 *1912:D 0
2 *1723:X 0.00205815
3 *27:14 0.00205815
4 *27:14 *1908:CLK 1.58163e-05
5 *27:14 *1910:D 0.000103253
6 *27:14 *1912:CLK 0.000356028
7 *27:14 *1999:D 0.000101545
8 *27:14 *477:10 4.87854e-05
9 *27:14 *477:32 0.000662895
*RES
1 *1723:X *27:14 49.3223 
2 *27:14 *1912:D 9.3 
*END

*D_NET *28 0.00221657
*CONN
*I *1913:D I *D sky130_fd_sc_hd__dfxtp_1
*I *1731:X O *D sky130_fd_sc_hd__a22o_1
*CAP
1 *1913:D 0.000583616
2 *1731:X 0.000583616
3 *1913:D *1726:A0 9.4736e-05
4 *1913:D *1726:A1 0.000201127
5 *1913:D *1727:A2 0
6 *1913:D *1727:B1 0
7 *1913:D *1731:A2 0.000115611
8 *1913:D *1751:A1 0.000103323
9 *1913:D *246:10 0
10 *1913:D *392:10 7.83366e-05
11 *1913:D *408:30 1.65558e-05
12 *1913:D *408:570 0.000439649
13 *1913:D *409:8 0
14 *1913:D *410:24 0
*RES
1 *1731:X *1913:D 42.1759 
*END

*D_NET *29 0.0103525
*CONN
*I *1914:D I *D sky130_fd_sc_hd__dfxtp_1
*I *1739:X O *D sky130_fd_sc_hd__a22o_1
*CAP
1 *1914:D 0
2 *1739:X 0.00130009
3 *29:18 0.00155972
4 *29:8 0.00285981
5 *29:8 *163:36 6.05161e-06
6 *29:8 *270:30 0.00171657
7 *29:18 *1747:A2 0.000131347
8 *29:18 *1914:CLK 7.45269e-05
9 *29:18 *1915:D 0.000461807
10 *29:18 *1949:D 1.08359e-05
11 *29:18 *2123:A 0
12 *29:18 *260:16 0.000469572
13 *29:18 *267:71 0.000561942
14 *29:18 *314:12 0.000382573
15 *29:18 *407:51 0.000239326
16 *29:18 *417:47 1.78353e-05
17 *29:18 *424:25 0.000175512
18 *29:18 *424:29 0.000384995
*RES
1 *1739:X *29:8 31.9964 
2 *29:8 *29:18 45.3438 
3 *29:18 *1914:D 9.3 
*END

*D_NET *30 0.00259831
*CONN
*I *1915:D I *D sky130_fd_sc_hd__dfxtp_1
*I *1747:X O *D sky130_fd_sc_hd__a22o_1
*CAP
1 *1915:D 0.000501527
2 *1747:X 0.000501527
3 *1915:D *1917:CLK 8.32171e-05
4 *1915:D *1918:CLK 3.6706e-05
5 *1915:D *260:16 0.000130556
6 *1915:D *417:12 1.21258e-05
7 *1915:D *417:23 0.000499769
8 *1915:D *417:36 0.000220448
9 *1915:D *417:47 0.000150625
10 *29:18 *1915:D 0.000461807
*RES
1 *1747:X *1915:D 42.0509 
*END

*D_NET *31 0.00323101
*CONN
*I *1916:D I *D sky130_fd_sc_hd__dfxtp_1
*I *1636:X O *D sky130_fd_sc_hd__a22o_1
*CAP
1 *1916:D 0.00102612
2 *1636:X 0.00102612
3 *1916:D *1629:S0 0
4 *1916:D *1636:A1 1.72894e-05
5 *1916:D *1740:S1 0
6 *1916:D *1741:B 0.000334493
7 *1916:D *1774:S 4.70697e-05
8 *1916:D *1780:A1 5.05058e-05
9 *1916:D *1820:S 8.68665e-05
10 *1916:D *1916:CLK 0.000127067
11 *1916:D *1941:D 0.000265759
12 *1916:D *34:14 0
13 *1916:D *164:73 9.33907e-05
14 *1916:D *264:68 3.56226e-05
15 *1916:D *266:35 3.15318e-05
16 *1916:D *407:51 8.91726e-05
17 *1916:D *424:65 0
18 *1916:D *424:71 0
*RES
1 *1636:X *1916:D 48.9259 
*END

*D_NET *32 0.000488376
*CONN
*I *1917:D I *D sky130_fd_sc_hd__dfxtp_1
*I *1644:X O *D sky130_fd_sc_hd__a22o_1
*CAP
1 *1917:D 0.000150406
2 *1644:X 0.000150406
3 *1917:D *1644:A1 9.53816e-06
4 *1917:D *267:30 0.000178025
*RES
1 *1644:X *1917:D 21.4795 
*END

*D_NET *33 0.00854807
*CONN
*I *1918:D I *D sky130_fd_sc_hd__dfxtp_1
*I *1652:X O *D sky130_fd_sc_hd__a22o_1
*CAP
1 *1918:D 0.000452727
2 *1652:X 0.00177153
3 *33:16 0.00222426
4 *1918:D *1895:CLK 1.64343e-05
5 *1918:D *2126:A 7.36267e-05
6 *1918:D *266:19 0.000160214
7 *1918:D *266:35 0.000140304
8 *1918:D *270:91 0.000363245
9 *33:16 *1652:A1 0.000521406
10 *33:16 *1652:B2 5.52238e-05
11 *33:16 *34:14 0.000843222
12 *33:16 *417:12 0.00134606
13 *33:16 *424:65 0.000507589
14 *33:16 *424:71 7.22263e-05
*RES
1 *1652:X *33:16 45.2107 
2 *33:16 *1918:D 25.0187 
*END

*D_NET *34 0.00488645
*CONN
*I *1919:D I *D sky130_fd_sc_hd__dfxtp_1
*I *1660:X O *D sky130_fd_sc_hd__a22o_1
*CAP
1 *1919:D 0
2 *1660:X 0.00153548
3 *34:14 0.00153548
4 *34:14 *1820:S 0.000128053
5 *34:14 *1919:CLK 9.60939e-05
6 *34:14 *1941:D 4.87669e-06
7 *34:14 *262:36 0.00010873
8 *34:14 *417:23 0.000250481
9 *34:14 *417:36 0.00011061
10 *34:14 *417:47 1.08359e-05
11 *34:14 *424:65 0.000222404
12 *34:14 *424:71 4.01768e-05
13 *1916:D *34:14 0
14 *33:16 *34:14 0.000843222
*RES
1 *1660:X *34:14 45.2286 
2 *34:14 *1919:D 9.3 
*END

*D_NET *35 0.0006322
*CONN
*I *1894:D I *D sky130_fd_sc_hd__dfxtp_1
*I *1750:X O *D sky130_fd_sc_hd__mux2_1
*CAP
1 *1894:D 0.0003161
2 *1750:X 0.0003161
3 *1894:D *260:16 0
4 *1894:D *399:10 0
5 *1894:D *407:265 0
*RES
1 *1750:X *1894:D 32.7652 
*END

*D_NET *36 0.000594711
*CONN
*I *1895:D I *D sky130_fd_sc_hd__dfxtp_1
*I *1751:X O *D sky130_fd_sc_hd__mux2_1
*CAP
1 *1895:D 0.000231563
2 *1751:X 0.000231563
3 *1895:D *1751:A1 0.000131584
4 *1895:D *400:10 0
5 *1895:D *452:10 0
*RES
1 *1751:X *1895:D 31.1045 
*END

*D_NET *37 0.00119463
*CONN
*I *1896:D I *D sky130_fd_sc_hd__dfxtp_1
*I *1752:X O *D sky130_fd_sc_hd__mux2_1
*CAP
1 *1896:D 0.000349993
2 *1752:X 0.000349993
3 *1896:D *1637:S1 0.000137846
4 *1896:D *1732:A2 5.83304e-05
5 *1896:D *262:115 0.000149094
6 *1896:D *407:89 0.000149372
*RES
1 *1752:X *1896:D 35.1937 
*END

*D_NET *38 0.00026743
*CONN
*I *1897:D I *D sky130_fd_sc_hd__dfxtp_1
*I *1753:X O *D sky130_fd_sc_hd__mux2_1
*CAP
1 *1897:D 0.000107021
2 *1753:X 0.000107021
3 *1897:D *1756:S 0
4 *1897:D *402:10 0
5 *1897:D *454:10 5.33882e-05
*RES
1 *1753:X *1897:D 29.5152 
*END

*D_NET *39 0.000894344
*CONN
*I *1898:D I *D sky130_fd_sc_hd__dfxtp_1
*I *1754:X O *D sky130_fd_sc_hd__mux2_1
*CAP
1 *1898:D 0.000263164
2 *1754:X 0.000263164
3 *1898:D *1631:A3 9.76689e-05
4 *1898:D *1754:A1 0
5 *1898:D *1799:A1 0.000188743
6 *1898:D *266:71 8.16036e-05
7 *1898:D *395:10 0
*RES
1 *1754:X *1898:D 33.408 
*END

*D_NET *40 0.000621436
*CONN
*I *1899:D I *D sky130_fd_sc_hd__dfxtp_1
*I *1755:X O *D sky130_fd_sc_hd__mux2_1
*CAP
1 *1899:D 0.000193337
2 *1755:X 0.000193337
3 *1899:D *1755:A1 0
4 *1899:D *433:16 0.000234761
*RES
1 *1755:X *1899:D 31.7652 
*END

*D_NET *41 0.00037682
*CONN
*I *1900:D I *D sky130_fd_sc_hd__dfxtp_1
*I *1756:X O *D sky130_fd_sc_hd__mux2_1
*CAP
1 *1900:D 0.000158751
2 *1756:X 0.000158751
3 *1900:D *1756:A0 0
4 *1900:D *301:10 0
5 *1900:D *457:172 5.93177e-05
*RES
1 *1756:X *1900:D 30.6402 
*END

*D_NET *42 0.0014024
*CONN
*I *1901:D I *D sky130_fd_sc_hd__dfxtp_1
*I *1757:X O *D sky130_fd_sc_hd__mux2_1
*CAP
1 *1901:D 0.000615715
2 *1757:X 0.000615715
3 *1901:D *1653:A2 0
4 *1901:D *436:21 0
5 *1901:D *436:25 0.000170964
*RES
1 *1757:X *1901:D 36.6223 
*END

*D_NET *43 0.0015668
*CONN
*I *1930:D I *D sky130_fd_sc_hd__dfxtp_1
*I *1759:X O *D sky130_fd_sc_hd__mux2_1
*CAP
1 *1930:D 0.000316866
2 *1759:X 0.000316866
3 *1930:D *1759:A1 7.83659e-05
4 *1930:D *1877:A1 7.6644e-05
5 *1930:D *264:16 0.000144186
6 *1930:D *416:120 0
7 *1930:D *422:12 0.000144186
8 *1930:D *451:158 0.000360816
9 *1930:D *451:169 0.000128868
*RES
1 *1759:X *1930:D 36.1045 
*END

*D_NET *44 0.00148144
*CONN
*I *1931:D I *D sky130_fd_sc_hd__dfxtp_1
*I *1760:X O *D sky130_fd_sc_hd__mux2_1
*CAP
1 *1931:D 0.000240806
2 *1760:X 0.000240806
3 *1931:D *1780:A1 0.000526443
4 *1931:D *163:73 0.000358109
5 *1931:D *320:6 7.80837e-05
6 *1931:D *407:51 3.71967e-05
7 *1931:D *452:150 0
*RES
1 *1760:X *1931:D 25.8009 
*END

*D_NET *45 0.00106552
*CONN
*I *1932:D I *D sky130_fd_sc_hd__dfxtp_1
*I *1761:X O *D sky130_fd_sc_hd__mux2_1
*CAP
1 *1932:D 0.00021713
2 *1761:X 0.00021713
3 *1932:D *1819:S 0.000288557
4 *1932:D *1932:CLK 6.05161e-06
5 *1932:D *1980:D 0.000125144
6 *1932:D *267:32 5.71472e-05
7 *1932:D *433:10 6.74911e-05
8 *1932:D *433:76 8.68665e-05
*RES
1 *1761:X *1932:D 33.1223 
*END

*D_NET *46 0.000365123
*CONN
*I *1933:D I *D sky130_fd_sc_hd__dfxtp_1
*I *1762:X O *D sky130_fd_sc_hd__mux2_1
*CAP
1 *1933:D 0.000133314
2 *1762:X 0.000133314
3 *1933:D *1646:A 0
4 *1933:D *407:61 4.50966e-05
5 *1933:D *407:167 5.33978e-05
*RES
1 *1762:X *1933:D 30.3366 
*END

*D_NET *47 0.000500441
*CONN
*I *1934:D I *D sky130_fd_sc_hd__dfxtp_1
*I *1763:X O *D sky130_fd_sc_hd__mux2_1
*CAP
1 *1934:D 0.000146599
2 *1763:X 0.000146599
3 *1934:D *1763:A0 0
4 *1934:D *1882:S 7.83587e-05
5 *1934:D *231:55 5.05572e-05
6 *1934:D *409:166 7.8327e-05
*RES
1 *1763:X *1934:D 30.9438 
*END

*D_NET *48 0.000535978
*CONN
*I *1935:D I *D sky130_fd_sc_hd__dfxtp_1
*I *1764:X O *D sky130_fd_sc_hd__mux2_1
*CAP
1 *1935:D 0.000216356
2 *1764:X 0.000216356
3 *1935:D *197:12 0.000103267
4 *1935:D *409:174 0
*RES
1 *1764:X *1935:D 31.158 
*END

*D_NET *49 0.000782475
*CONN
*I *1936:D I *D sky130_fd_sc_hd__dfxtp_1
*I *1765:X O *D sky130_fd_sc_hd__mux2_1
*CAP
1 *1936:D 0.000321754
2 *1765:X 0.000321754
3 *1936:D *1883:S 3.5707e-05
4 *1936:D *457:29 0.00010326
*RES
1 *1765:X *1936:D 32.8009 
*END

*D_NET *50 0.000758736
*CONN
*I *1937:D I *D sky130_fd_sc_hd__dfxtp_1
*I *1766:X O *D sky130_fd_sc_hd__mux2_1
*CAP
1 *1937:D 0.000285417
2 *1766:X 0.000285417
3 *1937:D *270:47 0
4 *1937:D *457:31 0.000187902
*RES
1 *1766:X *1937:D 33.783 
*END

*D_NET *51 0.000696484
*CONN
*I *1938:D I *D sky130_fd_sc_hd__dfxtp_1
*I *1768:X O *D sky130_fd_sc_hd__mux2_1
*CAP
1 *1938:D 0.000116335
2 *1768:X 0.000116335
3 *1938:D *1719:B1 0.00010326
4 *1938:D *1769:S 6.8646e-06
5 *1938:D *1938:CLK 0.000126144
6 *1938:D *1946:D 8.00806e-05
7 *1938:D *311:12 0.000124214
8 *1938:D *451:177 2.32517e-05
*RES
1 *1768:X *1938:D 30.9795 
*END

*D_NET *52 0.000368616
*CONN
*I *1939:D I *D sky130_fd_sc_hd__dfxtp_1
*I *1769:X O *D sky130_fd_sc_hd__mux2_1
*CAP
1 *1939:D 0.000121483
2 *1769:X 0.000121483
3 *1939:D *1769:A1 0.00012565
*RES
1 *1769:X *1939:D 20.658 
*END

*D_NET *53 0.00135533
*CONN
*I *1940:D I *D sky130_fd_sc_hd__dfxtp_1
*I *1770:X O *D sky130_fd_sc_hd__mux2_1
*CAP
1 *1940:D 0.000160657
2 *1770:X 0.000160657
3 *1940:D *1734:A3 0.00012401
4 *1940:D *263:44 0.000222971
5 *1940:D *329:10 0.000171368
6 *1940:D *416:66 0.000292693
7 *1940:D *456:108 0.000222971
*RES
1 *1770:X *1940:D 33.5866 
*END

*D_NET *54 0.00114711
*CONN
*I *1941:D I *D sky130_fd_sc_hd__dfxtp_1
*I *1771:X O *D sky130_fd_sc_hd__mux2_1
*CAP
1 *1941:D 0.000371281
2 *1771:X 0.000371281
3 *1941:D *1629:S0 0
4 *1941:D *1742:A1 2.10446e-05
5 *1941:D *1742:A3 5.71472e-05
6 *1941:D *306:12 3.92854e-05
7 *1941:D *409:160 0
8 *1941:D *410:49 0
9 *1941:D *424:65 1.64343e-05
10 *1916:D *1941:D 0.000265759
11 *34:14 *1941:D 4.87669e-06
*RES
1 *1771:X *1941:D 35.1045 
*END

*D_NET *55 0.00184225
*CONN
*I *1942:D I *D sky130_fd_sc_hd__dfxtp_1
*I *1772:X O *D sky130_fd_sc_hd__mux2_1
*CAP
1 *1942:D 0.000419029
2 *1772:X 0.000419029
3 *1942:D *1636:B1 0
4 *1942:D *164:73 0.000527792
5 *1942:D *264:20 1.40415e-05
6 *1942:D *265:34 0.000338344
7 *1942:D *265:55 0.00012401
*RES
1 *1772:X *1942:D 37.5687 
*END

*D_NET *56 0.000627734
*CONN
*I *1943:D I *D sky130_fd_sc_hd__dfxtp_1
*I *1773:X O *D sky130_fd_sc_hd__mux2_1
*CAP
1 *1943:D 0.000101493
2 *1773:X 0.000101493
3 *1943:D *1639:A1 3.72932e-05
4 *1943:D *1644:A1 0.000185794
5 *1943:D *1763:S 0.000100831
6 *1943:D *455:104 0.000100831
*RES
1 *1773:X *1943:D 30.7473 
*END

*D_NET *57 0.00114116
*CONN
*I *1944:D I *D sky130_fd_sc_hd__dfxtp_1
*I *1774:X O *D sky130_fd_sc_hd__mux2_1
*CAP
1 *1944:D 0.000279928
2 *1774:X 0.000279928
3 *1944:D *457:138 0.000581302
*RES
1 *1774:X *1944:D 24.533 
*END

*D_NET *58 0.00141667
*CONN
*I *1945:D I *D sky130_fd_sc_hd__dfxtp_1
*I *1775:X O *D sky130_fd_sc_hd__mux2_1
*CAP
1 *1945:D 0.000189725
2 *1775:X 0.000189725
3 *1945:D *1652:B1 0.000534365
4 *1945:D *1784:A1 8.82363e-05
5 *1945:D *408:402 0.000291669
6 *1945:D *408:484 0.000122951
*RES
1 *1775:X *1945:D 35.2607 
*END

*D_NET *59 0.00139222
*CONN
*I *1946:D I *D sky130_fd_sc_hd__dfxtp_1
*I *1777:X O *D sky130_fd_sc_hd__mux2_1
*CAP
1 *1946:D 0.000227602
2 *1777:X 0.000227602
3 *1946:D *1719:B1 0.000144089
4 *1946:D *2076:A 0.000269739
5 *1946:D *264:16 0.000185057
6 *1946:D *264:102 0.000111581
7 *1946:D *311:12 0.000146474
8 *1938:D *1946:D 8.00806e-05
*RES
1 *1777:X *1946:D 34.908 
*END

*D_NET *60 0.000486654
*CONN
*I *1947:D I *D sky130_fd_sc_hd__dfxtp_1
*I *1778:X O *D sky130_fd_sc_hd__mux2_1
*CAP
1 *1947:D 0.000132367
2 *1778:X 0.000132367
3 *1947:D *1719:A1 3.90513e-05
4 *1947:D *1725:B 0.00013025
5 *1947:D *265:110 5.26184e-05
*RES
1 *1778:X *1947:D 30.9438 
*END

*D_NET *61 0.00204267
*CONN
*I *1948:D I *D sky130_fd_sc_hd__dfxtp_1
*I *1779:X O *D sky130_fd_sc_hd__mux2_1
*CAP
1 *1948:D 0.000441525
2 *1779:X 0.000441525
3 *1948:D *1734:S0 0.000312022
4 *1948:D *2087:A 5.01213e-05
5 *1948:D *177:18 7.66284e-05
6 *1948:D *408:431 0
7 *1948:D *416:66 5.41054e-05
8 *1948:D *436:77 0.000666745
*RES
1 *1779:X *1948:D 38.8545 
*END

*D_NET *62 0.00130814
*CONN
*I *1949:D I *D sky130_fd_sc_hd__dfxtp_1
*I *1780:X O *D sky130_fd_sc_hd__mux2_1
*CAP
1 *1949:D 0.000209059
2 *1780:X 0.000209059
3 *1949:D *1742:S1 0.000139907
4 *1949:D *267:71 0.000196269
5 *1949:D *407:51 0.000336135
6 *1949:D *410:49 0.000206871
7 *29:18 *1949:D 1.08359e-05
*RES
1 *1780:X *1949:D 33.5509 
*END

*D_NET *63 0.0003463
*CONN
*I *1950:D I *D sky130_fd_sc_hd__dfxtp_1
*I *1781:X O *D sky130_fd_sc_hd__mux2_1
*CAP
1 *1950:D 7.04039e-05
2 *1781:X 7.04039e-05
3 *1950:D *1781:A0 5.7298e-05
4 *1950:D *1917:CLK 0.000100831
5 *1950:D *264:68 3.25247e-05
6 *1950:D *408:384 1.48385e-05
*RES
1 *1781:X *1950:D 29.5152 
*END

*D_NET *64 0.000470291
*CONN
*I *1951:D I *D sky130_fd_sc_hd__dfxtp_1
*I *1782:X O *D sky130_fd_sc_hd__mux2_1
*CAP
1 *1951:D 0.000169103
2 *1782:X 0.000169103
3 *1951:D *1782:A0 2.07028e-05
4 *1951:D *1951:CLK 0.000111383
*RES
1 *1782:X *1951:D 21.1938 
*END

*D_NET *65 0.00112908
*CONN
*I *1952:D I *D sky130_fd_sc_hd__dfxtp_1
*I *1783:X O *D sky130_fd_sc_hd__mux2_1
*CAP
1 *1952:D 0.000331851
2 *1783:X 0.000331851
3 *1952:D *1645:A1 0
4 *1952:D *1652:B1 0
5 *1952:D *1656:A2 1.76135e-05
6 *1952:D *1660:B1 5.80604e-05
7 *1952:D *1783:A0 5.52302e-05
8 *1952:D *1945:CLK 1.52978e-05
9 *1952:D *2090:A 0.000127163
10 *1952:D *416:138 6.61065e-05
11 *1952:D *421:10 8.15843e-05
12 *1952:D *421:82 4.43256e-05
*RES
1 *1783:X *1952:D 34.8545 
*END

*D_NET *66 0.000639025
*CONN
*I *1953:D I *D sky130_fd_sc_hd__dfxtp_1
*I *1784:X O *D sky130_fd_sc_hd__mux2_1
*CAP
1 *1953:D 0.000117964
2 *1784:X 0.000117964
3 *1953:D *1652:B1 0.000294422
4 *1953:D *1779:S 0.000103343
5 *1953:D *231:55 5.33091e-06
*RES
1 *1784:X *1953:D 31.533 
*END

*D_NET *67 0.00125858
*CONN
*I *1954:D I *D sky130_fd_sc_hd__dfxtp_1
*I *1786:X O *D sky130_fd_sc_hd__mux2_1
*CAP
1 *1954:D 0.000391049
2 *1786:X 0.000391049
3 *1954:D *1716:A1 0.000146474
4 *1954:D *1750:A0 1.58163e-05
5 *1954:D *265:26 0.00020563
6 *1954:D *267:14 5.52238e-05
7 *1954:D *295:8 5.33334e-05
*RES
1 *1786:X *1954:D 35.9973 
*END

*D_NET *68 0.00112303
*CONN
*I *1955:D I *D sky130_fd_sc_hd__dfxtp_1
*I *1787:X O *D sky130_fd_sc_hd__mux2_1
*CAP
1 *1955:D 0.000173166
2 *1787:X 0.000173166
3 *1955:D *1740:S1 0.000214302
4 *1955:D *1815:S 0.000125547
5 *1955:D *1955:CLK 0.000278574
6 *1955:D *270:105 0.000158274
*RES
1 *1787:X *1955:D 24.8366 
*END

*D_NET *69 0.00102687
*CONN
*I *1956:D I *D sky130_fd_sc_hd__dfxtp_1
*I *1788:X O *D sky130_fd_sc_hd__mux2_1
*CAP
1 *1956:D 0.000257897
2 *1788:X 0.000257897
3 *1956:D *1788:A0 0.000184635
4 *1956:D *1964:D 0.000223592
5 *1956:D *433:93 0.000102851
*RES
1 *1788:X *1956:D 34.6045 
*END

*D_NET *70 0.000395243
*CONN
*I *1957:D I *D sky130_fd_sc_hd__dfxtp_1
*I *1789:X O *D sky130_fd_sc_hd__mux2_1
*CAP
1 *1957:D 0.000136839
2 *1789:X 0.000136839
3 *1957:D *1740:A1 0
4 *1957:D *1789:A1 0
5 *1957:D *1820:A0 0
6 *1957:D *1820:S 1.64343e-05
7 *1957:D *1957:CLK 4.79842e-05
8 *1957:D *266:53 5.71472e-05
9 *1957:D *402:10 0
*RES
1 *1789:X *1957:D 30.2473 
*END

*D_NET *71 0.00123161
*CONN
*I *1958:D I *D sky130_fd_sc_hd__dfxtp_1
*I *1790:X O *D sky130_fd_sc_hd__mux2_1
*CAP
1 *1958:D 0.000474565
2 *1790:X 0.000474565
3 *1958:D *1790:A0 0
4 *1958:D *1958:CLK 0.000147136
5 *1958:D *1966:CLK 5.9483e-05
6 *1958:D *420:59 7.58571e-05
7 *1958:D *455:175 0
*RES
1 *1790:X *1958:D 37.033 
*END

*D_NET *72 0.000878788
*CONN
*I *1959:D I *D sky130_fd_sc_hd__dfxtp_1
*I *1791:X O *D sky130_fd_sc_hd__mux2_1
*CAP
1 *1959:D 0.000314193
2 *1791:X 0.000314193
3 *1959:D *1967:CLK 0
4 *1959:D *1967:D 0.000103267
5 *1959:D *300:10 0
6 *1959:D *433:22 0
7 *16:31 *1959:D 0.000147136
*RES
1 *1791:X *1959:D 33.6759 
*END

*D_NET *73 0.00144577
*CONN
*I *1960:D I *D sky130_fd_sc_hd__dfxtp_1
*I *1792:X O *D sky130_fd_sc_hd__mux2_1
*CAP
1 *1960:D 0.000501234
2 *1792:X 0.000501234
3 *1960:D *1801:A0 0
4 *1960:D *1944:CLK 0
5 *1960:D *1960:CLK 0.000190948
6 *1960:D *421:33 0
7 *1960:D *457:10 5.01117e-05
8 *1960:D *457:12 9.47456e-05
9 *1960:D *457:172 0.000107494
*RES
1 *1792:X *1960:D 38.033 
*END

*D_NET *74 0.000459262
*CONN
*I *1961:D I *D sky130_fd_sc_hd__dfxtp_1
*I *1793:X O *D sky130_fd_sc_hd__mux2_1
*CAP
1 *1961:D 0.000178001
2 *1793:X 0.000178001
3 *1961:D *420:22 0
4 *1961:D *436:10 1.02504e-05
5 *1961:D *436:21 9.30093e-05
*RES
1 *1793:X *1961:D 30.7473 
*END

*D_NET *75 0.00211223
*CONN
*I *1962:D I *D sky130_fd_sc_hd__dfxtp_1
*I *1795:X O *D sky130_fd_sc_hd__mux2_1
*CAP
1 *1962:D 0.000484304
2 *1795:X 0.000484304
3 *1962:D *1639:S0 0.000210814
4 *1962:D *1639:S1 0
5 *1962:D *1640:A2 5.33882e-05
6 *1962:D *1644:A2 0.000125241
7 *1962:D *1644:B1 0.000196269
8 *1962:D *1962:CLK 5.52302e-05
9 *1962:D *163:36 1.21258e-05
10 *1962:D *176:12 0
11 *1962:D *263:32 4.47206e-05
12 *1962:D *265:34 2.17819e-05
13 *1962:D *267:30 0.000178847
14 *1962:D *422:26 0.0002452
*RES
1 *1795:X *1962:D 46.9795 
*END

*D_NET *76 0.00124855
*CONN
*I *1963:D I *D sky130_fd_sc_hd__dfxtp_1
*I *1796:X O *D sky130_fd_sc_hd__mux2_1
*CAP
1 *1963:D 0.000171855
2 *1796:X 0.000171855
3 *1963:D *1740:S1 0.000212772
4 *1963:D *1796:A0 0.000150618
5 *1963:D *270:105 0.000541451
*RES
1 *1796:X *1963:D 34.6402 
*END

*D_NET *77 0.000874965
*CONN
*I *1964:D I *D sky130_fd_sc_hd__dfxtp_1
*I *1797:X O *D sky130_fd_sc_hd__mux2_1
*CAP
1 *1964:D 0.000304227
2 *1797:X 0.000304227
3 *1964:D *1788:A0 4.29179e-05
4 *1964:D *1956:CLK 0
5 *1964:D *1964:CLK 0
6 *1956:D *1964:D 0.000223592
*RES
1 *1797:X *1964:D 33.783 
*END

*D_NET *78 0.000811133
*CONN
*I *1965:D I *D sky130_fd_sc_hd__dfxtp_1
*I *1798:X O *D sky130_fd_sc_hd__mux2_1
*CAP
1 *1965:D 0.000225689
2 *1798:X 0.000225689
3 *1965:D *1798:A0 0
4 *1965:D *267:87 0.000102863
5 *1965:D *409:255 5.71472e-05
6 *1965:D *421:10 5.26091e-05
7 *1965:D *421:14 0.000147136
*RES
1 *1798:X *1965:D 32.7116 
*END

*D_NET *79 0.000500391
*CONN
*I *1966:D I *D sky130_fd_sc_hd__dfxtp_1
*I *1799:X O *D sky130_fd_sc_hd__mux2_1
*CAP
1 *1966:D 0.000157672
2 *1799:X 0.000157672
3 *1966:D *1799:A0 3.92854e-05
4 *1966:D *1799:A1 9.90431e-05
5 *1966:D *1966:CLK 4.67193e-05
*RES
1 *1799:X *1966:D 30.3545 
*END

*D_NET *80 0.00052715
*CONN
*I *1967:D I *D sky130_fd_sc_hd__dfxtp_1
*I *1800:X O *D sky130_fd_sc_hd__mux2_1
*CAP
1 *1967:D 0.000211942
2 *1800:X 0.000211942
3 *1967:D *1800:A0 0
4 *1967:D *300:10 0
5 *1959:D *1967:D 0.000103267
*RES
1 *1800:X *1967:D 31.158 
*END

*D_NET *81 0.0003855
*CONN
*I *1968:D I *D sky130_fd_sc_hd__dfxtp_1
*I *1801:X O *D sky130_fd_sc_hd__mux2_1
*CAP
1 *1968:D 0.000119746
2 *1801:X 0.000119746
3 *1968:D *1968:CLK 0.000115543
4 *1968:D *267:89 1.40306e-05
5 *1968:D *457:8 1.64343e-05
*RES
1 *1801:X *1968:D 29.6402 
*END

*D_NET *82 0.000441689
*CONN
*I *1969:D I *D sky130_fd_sc_hd__dfxtp_1
*I *1802:X O *D sky130_fd_sc_hd__mux2_1
*CAP
1 *1969:D 0.000220844
2 *1802:X 0.000220844
3 *1969:D *1799:S 0
4 *1969:D *1802:A1 0
5 *1969:D *1969:CLK 0
*RES
1 *1802:X *1969:D 31.3545 
*END

*D_NET *83 0.000777072
*CONN
*I *1970:D I *D sky130_fd_sc_hd__dfxtp_1
*I *1805:X O *D sky130_fd_sc_hd__mux2_1
*CAP
1 *1970:D 0.000296985
2 *1805:X 0.000296985
3 *1970:D *1805:S 8.87524e-05
4 *1970:D *269:26 7.1607e-05
5 *1970:D *383:8 2.27416e-05
*RES
1 *1805:X *1970:D 24.533 
*END

*D_NET *84 0.000380858
*CONN
*I *1971:D I *D sky130_fd_sc_hd__dfxtp_1
*I *1806:X O *D sky130_fd_sc_hd__mux2_1
*CAP
1 *1971:D 0.000154603
2 *1806:X 0.000154603
3 *1971:D *1746:A1 0
4 *1971:D *1834:A1 0
5 *1971:D *269:77 5.07567e-05
6 *1971:D *384:12 0
7 *1971:D *431:12 1.64343e-05
8 *1971:D *431:23 4.46186e-06
*RES
1 *1806:X *1971:D 30.2473 
*END

*D_NET *85 0.000863422
*CONN
*I *1972:D I *D sky130_fd_sc_hd__dfxtp_1
*I *1807:X O *D sky130_fd_sc_hd__mux2_1
*CAP
1 *1972:D 0.000431711
2 *1807:X 0.000431711
3 *1972:D *2013:D 0
*RES
1 *1807:X *1972:D 34.3545 
*END

*D_NET *86 0.00252873
*CONN
*I *1973:D I *D sky130_fd_sc_hd__dfxtp_1
*I *1808:X O *D sky130_fd_sc_hd__mux2_1
*CAP
1 *1973:D 0.000518963
2 *1808:X 0.000518963
3 *1973:D *1845:A0 0.000235493
4 *1973:D *176:12 0.000723813
5 *1973:D *276:61 0.00038372
6 *1973:D *378:8 5.01213e-05
7 *1973:D *386:14 9.7659e-05
8 *1973:D *455:102 0
*RES
1 *1808:X *1973:D 43.5687 
*END

*D_NET *87 0.000499512
*CONN
*I *1974:D I *D sky130_fd_sc_hd__dfxtp_1
*I *1809:X O *D sky130_fd_sc_hd__mux2_1
*CAP
1 *1974:D 0.000134425
2 *1809:X 0.000134425
3 *1974:D *1738:S 0.000149059
4 *1974:D *1871:S 0
5 *1974:D *416:45 8.16036e-05
*RES
1 *1809:X *1974:D 30.9438 
*END

*D_NET *88 0.000839206
*CONN
*I *1975:D I *D sky130_fd_sc_hd__dfxtp_1
*I *1810:X O *D sky130_fd_sc_hd__mux2_1
*CAP
1 *1975:D 0.000189894
2 *1810:X 0.000189894
3 *1975:D *1633:S0 0
4 *1975:D *426:83 8.04913e-05
5 *1975:D *426:98 3.57163e-05
6 *1975:D *456:41 0.00034321
*RES
1 *1810:X *1975:D 32.6759 
*END

*D_NET *89 0.000549419
*CONN
*I *1976:D I *D sky130_fd_sc_hd__dfxtp_1
*I *1811:X O *D sky130_fd_sc_hd__mux2_1
*CAP
1 *1976:D 0.000138126
2 *1811:X 0.000138126
3 *1976:D *1848:S 4.25809e-05
4 *1976:D *381:10 4.25809e-05
5 *1976:D *427:47 0.000188006
*RES
1 *1811:X *1976:D 31.0509 
*END

*D_NET *90 0.000566459
*CONN
*I *1977:D I *D sky130_fd_sc_hd__dfxtp_1
*I *1812:X O *D sky130_fd_sc_hd__mux2_1
*CAP
1 *1977:D 0.000255334
2 *1812:X 0.000255334
3 *1977:D *1849:A0 5.57914e-05
4 *1977:D *274:61 0
*RES
1 *1812:X *1977:D 32.1759 
*END

*D_NET *91 0.000690392
*CONN
*I *1978:D I *D sky130_fd_sc_hd__dfxtp_1
*I *1814:X O *D sky130_fd_sc_hd__mux2_1
*CAP
1 *1978:D 0.000192609
2 *1814:X 0.000192609
3 *1978:D *1814:A0 0.000171368
4 *1978:D *2091:A 1.64343e-05
5 *1978:D *263:95 0
6 *1978:D *270:30 7.48091e-05
7 *1978:D *422:18 4.25622e-05
*RES
1 *1814:X *1978:D 31.3723 
*END

*D_NET *92 0.00135089
*CONN
*I *1979:D I *D sky130_fd_sc_hd__dfxtp_1
*I *1815:X O *D sky130_fd_sc_hd__mux2_1
*CAP
1 *1979:D 0.000522966
2 *1815:X 0.000522966
3 *1979:D *1726:S0 5.01213e-05
4 *1979:D *1727:A2 5.30637e-06
5 *1979:D *1815:S 5.33005e-05
6 *1979:D *1913:CLK 9.91086e-05
7 *1979:D *392:10 9.71197e-05
*RES
1 *1815:X *1979:D 36.2473 
*END

*D_NET *93 0.00152085
*CONN
*I *1980:D I *D sky130_fd_sc_hd__dfxtp_1
*I *1816:X O *D sky130_fd_sc_hd__mux2_1
*CAP
1 *1980:D 0.000518378
2 *1816:X 0.000518378
3 *1980:D *1879:S 7.58664e-05
4 *1980:D *1932:CLK 1.02821e-05
5 *1980:D *433:80 5.52302e-05
6 *1980:D *433:93 1.47248e-05
7 *1980:D *457:31 0.000202842
8 *1932:D *1980:D 0.000125144
*RES
1 *1816:X *1980:D 36.033 
*END

*D_NET *94 0.000512277
*CONN
*I *1981:D I *D sky130_fd_sc_hd__dfxtp_1
*I *1817:X O *D sky130_fd_sc_hd__mux2_1
*CAP
1 *1981:D 0.00015464
2 *1817:X 0.00015464
3 *1981:D *1817:A1 9.64791e-05
4 *1981:D *1963:CLK 0.000106517
*RES
1 *1817:X *1981:D 21.1938 
*END

*D_NET *95 0.00112156
*CONN
*I *1982:D I *D sky130_fd_sc_hd__dfxtp_1
*I *1818:X O *D sky130_fd_sc_hd__mux2_1
*CAP
1 *1982:D 0.000394586
2 *1818:X 0.000394586
3 *1982:D *1631:A3 5.83304e-05
4 *1982:D *1653:S0 7.6644e-05
5 *1982:D *1754:S 7.38537e-05
6 *1982:D *1818:A0 1.21258e-05
7 *1982:D *262:115 0.000102002
8 *1982:D *455:160 3.69047e-06
9 *1982:D *455:169 5.74499e-06
*RES
1 *1818:X *1982:D 34.1223 
*END

*D_NET *96 0.00164307
*CONN
*I *1983:D I *D sky130_fd_sc_hd__dfxtp_1
*I *1819:X O *D sky130_fd_sc_hd__mux2_1
*CAP
1 *1983:D 0.000322635
2 *1819:X 0.000322635
3 *1983:D *1637:A1 0.000175512
4 *1983:D *1637:S1 0.000128146
5 *1983:D *1755:A0 0.000368096
6 *1983:D *1819:A0 0.000139202
7 *16:31 *1983:D 0.000186842
*RES
1 *1819:X *1983:D 35.4437 
*END

*D_NET *97 0.00135775
*CONN
*I *1984:D I *D sky130_fd_sc_hd__dfxtp_1
*I *1820:X O *D sky130_fd_sc_hd__mux2_1
*CAP
1 *1984:D 0.000243296
2 *1820:X 0.000243296
3 *1984:D *1647:A1 0.000103267
4 *1984:D *1647:S1 0
5 *1984:D *1648:A2 0.00012401
6 *1984:D *1820:A0 0
7 *1984:D *266:53 8.6432e-05
8 *1984:D *267:87 0.000153333
9 *1984:D *421:18 0.000404121
*RES
1 *1820:X *1984:D 35.533 
*END

*D_NET *98 0.000637029
*CONN
*I *1985:D I *D sky130_fd_sc_hd__dfxtp_1
*I *1821:X O *D sky130_fd_sc_hd__mux2_1
*CAP
1 *1985:D 0.00018457
2 *1821:X 0.00018457
3 *1985:D *1653:S0 0
4 *1985:D *1653:S1 2.84026e-05
5 *1985:D *1821:S 6.8646e-06
6 *1985:D *1968:CLK 0.000148903
7 *1985:D *420:121 8.37183e-05
*RES
1 *1821:X *1985:D 31.1938 
*END

*D_NET *99 0.00113987
*CONN
*I *1986:D I *D sky130_fd_sc_hd__dfxtp_1
*I *1824:X O *D sky130_fd_sc_hd__mux2_1
*CAP
1 *1986:D 0.000568088
2 *1824:X 0.000568088
3 *1986:D *279:10 3.69047e-06
*RES
1 *1824:X *1986:D 37.0687 
*END

*D_NET *100 0.00195562
*CONN
*I *1987:D I *D sky130_fd_sc_hd__dfxtp_1
*I *1825:X O *D sky130_fd_sc_hd__mux2_1
*CAP
1 *1987:D 0.000904532
2 *1825:X 0.000904532
3 *1987:D *1825:A0 1.21258e-05
4 *1987:D *1987:CLK 1.64343e-05
5 *1987:D *1994:CLK 5.76121e-05
6 *1987:D *272:25 5.03772e-05
7 *1987:D *432:8 1.00073e-05
8 *1987:D *432:10 0
9 *1987:D *459:20 0
*RES
1 *1825:X *1987:D 39.3545 
*END

*D_NET *101 0.000455027
*CONN
*I *1988:D I *D sky130_fd_sc_hd__dfxtp_1
*I *1826:X O *D sky130_fd_sc_hd__mux2_1
*CAP
1 *1988:D 0.000227514
2 *1826:X 0.000227514
3 *1988:D *1826:A0 0
4 *1988:D *1988:CLK 0
*RES
1 *1826:X *1988:D 31.3545 
*END

*D_NET *102 0.000614445
*CONN
*I *1989:D I *D sky130_fd_sc_hd__dfxtp_1
*I *1827:X O *D sky130_fd_sc_hd__mux2_1
*CAP
1 *1989:D 0.000151392
2 *1827:X 0.000151392
3 *1989:D *1827:A0 0.000137983
4 *1989:D *1872:A1 5.10822e-05
5 *1989:D *2047:D 0.000104974
6 *1989:D *278:22 1.76204e-05
*RES
1 *1827:X *1989:D 30.4616 
*END

*D_NET *103 0.00155644
*CONN
*I *1990:D I *D sky130_fd_sc_hd__dfxtp_1
*I *1828:X O *D sky130_fd_sc_hd__mux2_1
*CAP
1 *1990:D 0.000245918
2 *1828:X 0.000245918
3 *1990:D *1633:A1 8.96049e-05
4 *1990:D *1633:A2 0
5 *1990:D *1633:S0 0.000153054
6 *1990:D *1828:A0 0
7 *1990:D *2024:CLK 0.000410013
8 *1990:D *275:57 0.000411936
*RES
1 *1828:X *1990:D 36.1402 
*END

*D_NET *104 0.000751129
*CONN
*I *1991:D I *D sky130_fd_sc_hd__dfxtp_1
*I *1829:X O *D sky130_fd_sc_hd__mux2_1
*CAP
1 *1991:D 0.000167295
2 *1829:X 0.000167295
3 *1991:D *1829:A1 3.57163e-05
4 *1991:D *2049:D 0.000103267
5 *1991:D *278:110 0.000277555
*RES
1 *1829:X *1991:D 31.5688 
*END

*D_NET *105 0.000595427
*CONN
*I *1992:D I *D sky130_fd_sc_hd__dfxtp_1
*I *1830:X O *D sky130_fd_sc_hd__mux2_1
*CAP
1 *1992:D 0.000119806
2 *1830:X 0.000119806
3 *1992:D *253:10 5.26091e-05
4 *1992:D *269:103 3.18676e-05
5 *1992:D *275:121 8.95121e-05
6 *1992:D *277:30 3.29239e-05
7 *1992:D *428:66 0.000148903
*RES
1 *1830:X *1992:D 30.9393 
*END

*D_NET *106 0.000396658
*CONN
*I *1993:D I *D sky130_fd_sc_hd__dfxtp_1
*I *1831:X O *D sky130_fd_sc_hd__mux2_1
*CAP
1 *1993:D 0.00010772
2 *1831:X 0.00010772
3 *1993:D *272:99 0.000100823
4 *1993:D *276:61 8.03949e-05
5 *1993:D *409:180 0
*RES
1 *1831:X *1993:D 29.7473 
*END

*D_NET *107 0.000520111
*CONN
*I *2003:D I *D sky130_fd_sc_hd__dfxtp_1
*I *1833:X O *D sky130_fd_sc_hd__mux2_1
*CAP
1 *2003:D 0.000155501
2 *1833:X 0.000155501
3 *2003:D *1643:S 1.76204e-05
4 *2003:D *269:12 0.000154762
5 *2003:D *274:20 3.67257e-05
6 *2003:D *407:439 0
*RES
1 *1833:X *2003:D 30.658 
*END

*D_NET *108 0.00143997
*CONN
*I *2004:D I *D sky130_fd_sc_hd__dfxtp_1
*I *1834:X O *D sky130_fd_sc_hd__mux2_1
*CAP
1 *2004:D 0.000530201
2 *1834:X 0.000530201
3 *2004:D *1729:A0 0.000150625
4 *2004:D *1729:A2 0
5 *2004:D *1834:A1 3.93893e-05
6 *2004:D *368:10 6.62608e-05
7 *2004:D *407:265 0.000123295
8 *2004:D *407:427 0
*RES
1 *1834:X *2004:D 37.283 
*END

*D_NET *109 0.0016258
*CONN
*I *2005:D I *D sky130_fd_sc_hd__dfxtp_1
*I *1835:X O *D sky130_fd_sc_hd__mux2_1
*CAP
1 *2005:D 0.000371394
2 *1835:X 0.000371394
3 *2005:D *1835:S 0.000103032
4 *2005:D *1844:A0 8.16036e-05
5 *2005:D *1862:A0 0.000214349
6 *2005:D *361:10 7.6644e-05
7 *2005:D *377:10 0.000179053
8 *2005:D *419:14 0.000228335
*RES
1 *1835:X *2005:D 36.5509 
*END

*D_NET *110 0.00158455
*CONN
*I *2006:D I *D sky130_fd_sc_hd__dfxtp_1
*I *1836:X O *D sky130_fd_sc_hd__mux2_1
*CAP
1 *2006:D 0.000515916
2 *1836:X 0.000515916
3 *2006:D *1745:A0 1.08359e-05
4 *2006:D *1745:S0 2.84398e-05
5 *2006:D *1836:A1 0.000123295
6 *2006:D *1863:A0 9.90431e-05
7 *2006:D *370:10 0.000206563
8 *2006:D *454:53 8.45386e-05
*RES
1 *1836:X *2006:D 37.283 
*END

*D_NET *111 0.00146459
*CONN
*I *2007:D I *D sky130_fd_sc_hd__dfxtp_1
*I *1837:X O *D sky130_fd_sc_hd__mux2_1
*CAP
1 *2007:D 0.000409875
2 *1837:X 0.000409875
3 *2007:D *1634:S0 0
4 *2007:D *1738:S 0.000108305
5 *2007:D *1826:S 0
6 *2007:D *1837:A1 0.0003467
7 *2007:D *274:53 6.16848e-05
8 *2007:D *371:10 0.000128154
9 *2007:D *409:180 0
*RES
1 *1837:X *2007:D 36.408 
*END

*D_NET *112 0.000404365
*CONN
*I *2008:D I *D sky130_fd_sc_hd__dfxtp_1
*I *1838:X O *D sky130_fd_sc_hd__mux2_1
*CAP
1 *2008:D 0.000150549
2 *1838:X 0.000150549
3 *2008:D *408:216 0.000103267
*RES
1 *1838:X *2008:D 30.3366 
*END

*D_NET *113 0.00154554
*CONN
*I *2009:D I *D sky130_fd_sc_hd__dfxtp_1
*I *1839:X O *D sky130_fd_sc_hd__mux2_1
*CAP
1 *2009:D 0.000496028
2 *1839:X 0.000496028
3 *2009:D *1650:S0 0.000439641
4 *2009:D *1839:A1 9.99014e-05
5 *2009:D *269:103 1.3938e-05
*RES
1 *1839:X *2009:D 37.0509 
*END

*D_NET *114 0.000701346
*CONN
*I *2010:D I *D sky130_fd_sc_hd__dfxtp_1
*I *1840:X O *D sky130_fd_sc_hd__mux2_1
*CAP
1 *2010:D 0.000248809
2 *1840:X 0.000248809
3 *2010:D *1658:A1 8.14853e-05
4 *2010:D *1737:S0 2.05938e-05
5 *2010:D *1840:A0 4.85049e-06
6 *2010:D *1840:A1 8.03635e-05
7 *2010:D *427:79 1.64343e-05
*RES
1 *1840:X *2010:D 31.4795 
*END

*D_NET *115 0.000779659
*CONN
*I *2011:D I *D sky130_fd_sc_hd__dfxtp_1
*I *1842:X O *D sky130_fd_sc_hd__mux2_1
*CAP
1 *2011:D 0.000378459
2 *1842:X 0.000378459
3 *2011:D *375:8 2.27416e-05
*RES
1 *1842:X *2011:D 24.533 
*END

*D_NET *116 0.00121665
*CONN
*I *2012:D I *D sky130_fd_sc_hd__dfxtp_1
*I *1843:X O *D sky130_fd_sc_hd__mux2_1
*CAP
1 *2012:D 0.000355549
2 *1843:X 0.000355549
3 *2012:D *2004:CLK 2.08464e-05
4 *2012:D *276:35 2.07491e-05
5 *2012:D *276:61 0
6 *2012:D *376:10 4.59429e-05
7 *2012:D *429:99 0.000375967
8 *2012:D *429:101 4.20522e-05
*RES
1 *1843:X *2012:D 26.0509 
*END

*D_NET *117 0.00125214
*CONN
*I *2013:D I *D sky130_fd_sc_hd__dfxtp_1
*I *1844:X O *D sky130_fd_sc_hd__mux2_1
*CAP
1 *2013:D 0.000552502
2 *1844:X 0.000552502
3 *2013:D *1807:A1 0
4 *2013:D *1972:CLK 0
5 *2013:D *269:141 0
6 *2013:D *419:18 0.000147136
7 *1972:D *2013:D 0
*RES
1 *1844:X *2013:D 37.9259 
*END

*D_NET *118 0.0012695
*CONN
*I *2014:D I *D sky130_fd_sc_hd__dfxtp_1
*I *1845:X O *D sky130_fd_sc_hd__mux2_1
*CAP
1 *2014:D 0.000634748
2 *1845:X 0.000634748
3 *2014:D *409:176 0
4 *2014:D *409:180 0
5 *2014:D *455:102 0
*RES
1 *1845:X *2014:D 38.2295 
*END

*D_NET *119 0.000657053
*CONN
*I *2015:D I *D sky130_fd_sc_hd__dfxtp_1
*I *1846:X O *D sky130_fd_sc_hd__mux2_1
*CAP
1 *2015:D 0.000245349
2 *1846:X 0.000245349
3 *2015:D *1738:A0 0
4 *2015:D *1871:S 0.000111132
5 *2015:D *1888:S 0
6 *2015:D *274:55 5.52238e-05
7 *2015:D *419:113 0
*RES
1 *1846:X *2015:D 32.3723 
*END

*D_NET *120 0.000874361
*CONN
*I *2016:D I *D sky130_fd_sc_hd__dfxtp_1
*I *1847:X O *D sky130_fd_sc_hd__mux2_1
*CAP
1 *2016:D 0.000239722
2 *1847:X 0.000239722
3 *2016:D *1634:S1 0
4 *2016:D *1635:A1 3.92854e-05
5 *2016:D *2016:CLK 0.000190948
6 *2016:D *363:12 0
7 *2016:D *407:463 3.69047e-06
8 *2016:D *407:467 7.32903e-05
9 *2016:D *426:83 9.69119e-06
10 *2016:D *426:98 7.8011e-05
*RES
1 *1847:X *2016:D 33.4795 
*END

*D_NET *121 0.000676974
*CONN
*I *2017:D I *D sky130_fd_sc_hd__dfxtp_1
*I *1848:X O *D sky130_fd_sc_hd__mux2_1
*CAP
1 *2017:D 0.000231944
2 *1848:X 0.000231944
3 *2017:D *1848:S 0
4 *2017:D *427:53 0.000202835
5 *2017:D *427:66 1.02504e-05
*RES
1 *1848:X *2017:D 32.1402 
*END

*D_NET *122 0.000532233
*CONN
*I *2018:D I *D sky130_fd_sc_hd__dfxtp_1
*I *1849:X O *D sky130_fd_sc_hd__mux2_1
*CAP
1 *2018:D 0.000198675
2 *1849:X 0.000198675
3 *2018:D *274:61 0
4 *2018:D *427:66 5.57914e-05
5 *2018:D *427:70 6.26559e-05
6 *2018:D *427:79 1.64343e-05
*RES
1 *1849:X *2018:D 31.8366 
*END

*D_NET *123 0.000815933
*CONN
*I *2019:D I *D sky130_fd_sc_hd__dfxtp_1
*I *1851:X O *D sky130_fd_sc_hd__mux2_1
*CAP
1 *2019:D 0.000206726
2 *1851:X 0.000206726
3 *2019:D *1722:A0 9.60875e-05
4 *2019:D *1824:A1 1.76204e-05
5 *2019:D *1851:A1 2.60984e-05
6 *2019:D *2044:D 0.000194479
7 *2019:D *275:34 5.17614e-05
8 *2019:D *430:14 1.64343e-05
*RES
1 *1851:X *2019:D 32.0866 
*END

*D_NET *124 0.00191483
*CONN
*I *2020:D I *D sky130_fd_sc_hd__dfxtp_1
*I *1852:X O *D sky130_fd_sc_hd__mux2_1
*CAP
1 *2020:D 0.000333753
2 *1852:X 0.000333753
3 *2020:D *277:92 0.000574443
4 *2020:D *408:134 0.000272689
5 *2020:D *409:98 0.000182169
6 *2020:D *430:67 0.000218019
*RES
1 *1852:X *2020:D 37.6402 
*END

*D_NET *125 0.00101724
*CONN
*I *2021:D I *D sky130_fd_sc_hd__dfxtp_1
*I *1853:X O *D sky130_fd_sc_hd__mux2_1
*CAP
1 *2021:D 0.00023909
2 *1853:X 0.00023909
3 *2021:D *2062:D 9.24395e-05
4 *2021:D *419:63 0.000361143
5 *2021:D *453:25 8.54803e-05
*RES
1 *1853:X *2021:D 33.3009 
*END

*D_NET *126 0.000550667
*CONN
*I *2022:D I *D sky130_fd_sc_hd__dfxtp_1
*I *1854:X O *D sky130_fd_sc_hd__mux2_1
*CAP
1 *2022:D 0.00014503
2 *1854:X 0.00014503
3 *2022:D *408:247 0.000107553
4 *2022:D *409:176 0
5 *2022:D *455:102 0.000153054
*RES
1 *1854:X *2022:D 31.3545 
*END

*D_NET *127 0.000916552
*CONN
*I *2023:D I *D sky130_fd_sc_hd__dfxtp_1
*I *1855:X O *D sky130_fd_sc_hd__mux2_1
*CAP
1 *2023:D 0.000204998
2 *1855:X 0.000204998
3 *2023:D *1826:S 0.000315172
4 *2023:D *2023:CLK 0.000144186
5 *2023:D *2064:D 4.71964e-05
6 *2023:D *455:20 0
*RES
1 *1855:X *2023:D 33.0687 
*END

*D_NET *128 0.001512
*CONN
*I *2024:D I *D sky130_fd_sc_hd__dfxtp_1
*I *1856:X O *D sky130_fd_sc_hd__mux2_1
*CAP
1 *2024:D 0.000426967
2 *1856:X 0.000426967
3 *2024:D *1856:A1 0
4 *2024:D *1873:S 3.18676e-05
5 *2024:D *1890:S 0.000177941
6 *2024:D *1891:S 0.000148911
7 *2024:D *275:57 0.000286408
8 *2024:D *356:6 3.69047e-06
9 *2024:D *429:46 9.25014e-06
*RES
1 *1856:X *2024:D 37.3009 
*END

*D_NET *129 0.000660413
*CONN
*I *2025:D I *D sky130_fd_sc_hd__dfxtp_1
*I *1857:X O *D sky130_fd_sc_hd__mux2_1
*CAP
1 *2025:D 0.000240216
2 *1857:X 0.000240216
3 *2025:D *1651:A1 5.39166e-06
4 *2025:D *2066:D 3.48139e-05
5 *2025:D *269:103 4.87669e-06
6 *2025:D *453:90 0.000125649
7 *2025:D *457:39 9.25014e-06
8 *2025:D *457:50 0
9 *2025:D *457:52 0
*RES
1 *1857:X *2025:D 32.6759 
*END

*D_NET *130 0.000751006
*CONN
*I *2026:D I *D sky130_fd_sc_hd__dfxtp_1
*I *1858:X O *D sky130_fd_sc_hd__mux2_1
*CAP
1 *2026:D 0.000186057
2 *1858:X 0.000186057
3 *2026:D *1888:S 0
4 *2026:D *276:61 0.00010326
5 *2026:D *407:311 0.000275631
*RES
1 *1858:X *2026:D 31.5688 
*END

*D_NET *131 0.00223859
*CONN
*I *2036:D I *D sky130_fd_sc_hd__dfxtp_1
*I *1860:X O *D sky130_fd_sc_hd__mux2_1
*CAP
1 *2036:D 0.000459498
2 *1860:X 0.000459498
3 *2036:D *1643:S 0.000135028
4 *2036:D *1860:A0 0.000309059
5 *2036:D *2036:CLK 0.0001858
6 *2036:D *275:34 0.000509464
7 *2036:D *359:10 0.000180244
8 *2036:D *430:8 0
9 *2036:D *430:14 0
*RES
1 *1860:X *2036:D 39.3187 
*END

*D_NET *132 0.000517619
*CONN
*I *2037:D I *D sky130_fd_sc_hd__dfxtp_1
*I *1861:X O *D sky130_fd_sc_hd__mux2_1
*CAP
1 *2037:D 9.19375e-05
2 *1861:X 9.19375e-05
3 *2037:D *2037:CLK 3.48139e-05
4 *2037:D *274:10 0.000150618
5 *2037:D *276:16 8.15095e-05
6 *2037:D *276:22 2.53061e-05
7 *2037:D *407:427 4.14968e-05
*RES
1 *1861:X *2037:D 30.4036 
*END

*D_NET *133 0.00121886
*CONN
*I *2038:D I *D sky130_fd_sc_hd__dfxtp_1
*I *1862:X O *D sky130_fd_sc_hd__mux2_1
*CAP
1 *2038:D 0.000244936
2 *1862:X 0.000244936
3 *2038:D *1737:S1 0.000346639
4 *2038:D *1738:A1 8.00806e-05
5 *2038:D *1835:S 0
6 *2038:D *1888:S 0.000247037
7 *2038:D *274:55 5.52302e-05
*RES
1 *1862:X *2038:D 35.1045 
*END

*D_NET *134 0.000463644
*CONN
*I *2039:D I *D sky130_fd_sc_hd__dfxtp_1
*I *1863:X O *D sky130_fd_sc_hd__mux2_1
*CAP
1 *2039:D 9.05097e-05
2 *1863:X 9.05097e-05
3 *2039:D *1863:S 3.57844e-05
4 *2039:D *273:46 0.000153054
5 *2039:D *276:61 9.22693e-05
6 *2039:D *386:14 1.51611e-06
*RES
1 *1863:X *2039:D 30.4036 
*END

*D_NET *135 0.00204245
*CONN
*I *2040:D I *D sky130_fd_sc_hd__dfxtp_1
*I *1864:X O *D sky130_fd_sc_hd__mux2_1
*CAP
1 *2040:D 0.0002933
2 *1864:X 0.0002933
3 *2040:D *1634:S0 0.00027095
4 *2040:D *1736:S0 0.000267814
5 *2040:D *1809:S 0.000147136
6 *2040:D *1837:A1 0
7 *2040:D *2040:CLK 5.5855e-05
8 *2040:D *455:55 0.000714097
*RES
1 *1864:X *2040:D 38.2295 
*END

*D_NET *136 0.000493167
*CONN
*I *2041:D I *D sky130_fd_sc_hd__dfxtp_1
*I *1865:X O *D sky130_fd_sc_hd__mux2_1
*CAP
1 *2041:D 0.000166642
2 *1865:X 0.000166642
3 *2041:D *1642:A2 3.12916e-05
4 *2041:D *2041:CLK 4.87669e-06
5 *2041:D *276:117 0
6 *2041:D *408:207 7.8327e-05
7 *2041:D *429:31 4.53889e-05
*RES
1 *1865:X *2041:D 30.9438 
*END

*D_NET *137 0.000969148
*CONN
*I *2042:D I *D sky130_fd_sc_hd__dfxtp_1
*I *1866:X O *D sky130_fd_sc_hd__mux2_1
*CAP
1 *2042:D 0.000313861
2 *1866:X 0.000313861
3 *2042:D *1650:S0 0.000324991
4 *2042:D *373:10 0
5 *2042:D *427:43 1.64343e-05
*RES
1 *1866:X *2042:D 33.7473 
*END

*D_NET *138 0.000479296
*CONN
*I *2043:D I *D sky130_fd_sc_hd__dfxtp_1
*I *1867:X O *D sky130_fd_sc_hd__mux2_1
*CAP
1 *2043:D 8.97069e-05
2 *1867:X 8.97069e-05
3 *2043:D *1867:A0 0.00010038
4 *2043:D *407:311 0.00010038
5 *2043:D *436:133 9.91224e-05
*RES
1 *1867:X *2043:D 29.9259 
*END

*D_NET *139 0.00133255
*CONN
*I *2044:D I *D sky130_fd_sc_hd__dfxtp_1
*I *1869:X O *D sky130_fd_sc_hd__mux2_1
*CAP
1 *2044:D 0.000355308
2 *1869:X 0.000355308
3 *2044:D *1720:S1 0
4 *2044:D *1869:A0 2.59355e-05
5 *2044:D *272:35 2.60782e-05
6 *2044:D *275:34 0.00012401
7 *2044:D *277:102 0.000100814
8 *2044:D *430:14 0
9 *2044:D *430:32 0.000150618
10 *2019:D *2044:D 0.000194479
*RES
1 *1869:X *2044:D 35.1402 
*END

*D_NET *140 0.000794029
*CONN
*I *2045:D I *D sky130_fd_sc_hd__dfxtp_1
*I *1870:X O *D sky130_fd_sc_hd__mux2_1
*CAP
1 *2045:D 0.000207386
2 *1870:X 0.000207386
3 *2045:D *1852:A1 0.000122942
4 *2045:D *2045:CLK 0.000105712
5 *2045:D *272:25 0
6 *2045:D *336:10 8.31214e-05
7 *2045:D *352:10 6.74815e-05
*RES
1 *1870:X *2045:D 33.3723 
*END

*D_NET *141 0.00141752
*CONN
*I *2046:D I *D sky130_fd_sc_hd__dfxtp_1
*I *1871:X O *D sky130_fd_sc_hd__mux2_1
*CAP
1 *2046:D 0.000344697
2 *1871:X 0.000344697
3 *2046:D *1736:A3 0
4 *2046:D *1736:S1 4.51691e-05
5 *2046:D *1738:A0 0
6 *2046:D *1853:S 0.000315165
7 *2046:D *1871:A1 0
8 *2046:D *1988:CLK 9.69119e-06
9 *2046:D *2064:CLK 0.000128496
10 *2046:D *337:10 0
11 *2046:D *419:70 0.000229607
*RES
1 *1871:X *2046:D 35.7295 
*END

*D_NET *142 0.0012066
*CONN
*I *2047:D I *D sky130_fd_sc_hd__dfxtp_1
*I *1872:X O *D sky130_fd_sc_hd__mux2_1
*CAP
1 *2047:D 0.000295859
2 *1872:X 0.000295859
3 *2047:D *1746:A0 7.38652e-05
4 *2047:D *1872:A1 0.000105053
5 *2047:D *277:18 0.000155302
6 *2047:D *282:14 0.000126439
7 *2047:D *338:10 4.92465e-05
8 *2047:D *431:34 0
9 *1989:D *2047:D 0.000104974
*RES
1 *1872:X *2047:D 35.1045 
*END

*D_NET *143 0.000473629
*CONN
*I *2048:D I *D sky130_fd_sc_hd__dfxtp_1
*I *1873:X O *D sky130_fd_sc_hd__mux2_1
*CAP
1 *2048:D 0.000163247
2 *1873:X 0.000163247
3 *2048:D *1873:A1 0
4 *2048:D *1890:A0 0
5 *2048:D *2065:CLK 0.000147136
6 *2048:D *426:36 0
*RES
1 *1873:X *2048:D 30.9438 
*END

*D_NET *144 0.00161308
*CONN
*I *2049:D I *D sky130_fd_sc_hd__dfxtp_1
*I *1874:X O *D sky130_fd_sc_hd__mux2_1
*CAP
1 *2049:D 0.00050272
2 *1874:X 0.00050272
3 *2049:D *1641:A3 6.4549e-05
4 *2049:D *1829:A1 0
5 *2049:D *1856:S 0
6 *2049:D *1873:S 5.71472e-05
7 *2049:D *1991:CLK 0.000226664
8 *2049:D *275:57 0.000141981
9 *2049:D *340:8 1.40306e-05
10 *1991:D *2049:D 0.000103267
*RES
1 *1874:X *2049:D 37.408 
*END

*D_NET *145 0.00077523
*CONN
*I *2050:D I *D sky130_fd_sc_hd__dfxtp_1
*I *1875:X O *D sky130_fd_sc_hd__mux2_1
*CAP
1 *2050:D 0.000188017
2 *1875:X 0.000188017
3 *2050:D *1651:A1 0.000190955
4 *2050:D *1875:S 0.000103267
5 *2050:D *436:77 0.000104974
*RES
1 *1875:X *2050:D 31.9795 
*END

*D_NET *146 0.000538602
*CONN
*I *2051:D I *D sky130_fd_sc_hd__dfxtp_1
*I *1876:X O *D sky130_fd_sc_hd__mux2_1
*CAP
1 *2051:D 0.000168339
2 *1876:X 0.000168339
3 *2051:D *1657:A2 6.05161e-06
4 *2051:D *407:293 4.52477e-05
5 *2051:D *407:295 0
6 *2051:D *407:373 0
7 *2051:D *416:45 0.000150625
*RES
1 *1876:X *2051:D 30.9438 
*END

*D_NET *147 0.000719853
*CONN
*I *2052:D I *D sky130_fd_sc_hd__dfxtp_1
*I *1877:X O *D sky130_fd_sc_hd__mux2_1
*CAP
1 *2052:D 0.000266882
2 *1877:X 0.000266882
3 *2052:D *263:95 3.57163e-05
4 *2052:D *408:384 0.000114656
5 *2052:D *451:158 3.57163e-05
*RES
1 *1877:X *2052:D 32.8009 
*END

*D_NET *148 0.00134488
*CONN
*I *2053:D I *D sky130_fd_sc_hd__dfxtp_1
*I *1878:X O *D sky130_fd_sc_hd__mux2_1
*CAP
1 *2053:D 0.000309103
2 *1878:X 0.000309103
3 *2053:D *1724:A0 9.51272e-05
4 *2053:D *1724:A1 0.00012401
5 *2053:D *1742:S1 5.18845e-05
6 *2053:D *1762:S 6.09746e-05
7 *2053:D *2078:A 7.18079e-05
8 *2053:D *263:110 0
9 *2053:D *416:120 0.000177941
10 *2053:D *425:16 0.00014493
*RES
1 *1878:X *2053:D 35.8009 
*END

*D_NET *149 0.000569421
*CONN
*I *2054:D I *D sky130_fd_sc_hd__dfxtp_1
*I *1879:X O *D sky130_fd_sc_hd__mux2_1
*CAP
1 *2054:D 0.000126124
2 *1879:X 0.000126124
3 *2054:D *177:18 9.90431e-05
4 *2054:D *453:90 0.000154762
5 *2054:D *457:31 5.35423e-05
6 *16:31 *2054:D 9.82585e-06
*RES
1 *1879:X *2054:D 30.658 
*END

*D_NET *150 0.000524777
*CONN
*I *2055:D I *D sky130_fd_sc_hd__dfxtp_1
*I *1880:X O *D sky130_fd_sc_hd__mux2_1
*CAP
1 *2055:D 9.0197e-05
2 *1880:X 9.0197e-05
3 *2055:D *1646:A 0
4 *2055:D *1783:S 0
5 *2055:D *163:73 0.000147136
6 *2055:D *164:34 5.01117e-05
7 *2055:D *410:88 0.000147136
*RES
1 *1880:X *2055:D 30.3366 
*END

*D_NET *151 0.000726323
*CONN
*I *2056:D I *D sky130_fd_sc_hd__dfxtp_1
*I *1881:X O *D sky130_fd_sc_hd__mux2_1
*CAP
1 *2056:D 0.000221989
2 *1881:X 0.000221989
3 *2056:D *408:394 0.000200742
4 *2056:D *409:166 0
5 *2056:D *455:145 8.16036e-05
*RES
1 *1881:X *2056:D 32.9973 
*END

*D_NET *152 0.000512531
*CONN
*I *2057:D I *D sky130_fd_sc_hd__dfxtp_1
*I *1882:X O *D sky130_fd_sc_hd__mux2_1
*CAP
1 *2057:D 0.000199633
2 *1882:X 0.000199633
3 *2057:D *197:12 5.01117e-05
4 *2057:D *409:174 3.0285e-05
5 *2057:D *416:20 1.64343e-05
6 *2069:A *2057:D 1.64343e-05
*RES
1 *1882:X *2057:D 30.4616 
*END

*D_NET *153 0.00101547
*CONN
*I *2058:D I *D sky130_fd_sc_hd__dfxtp_1
*I *1883:X O *D sky130_fd_sc_hd__mux2_1
*CAP
1 *2058:D 8.76633e-05
2 *1883:X 8.76633e-05
3 *2058:D *1821:S 0.000100831
4 *2058:D *2073:A 0.000318276
5 *2058:D *266:65 0.000320205
6 *2058:D *436:48 0.000100831
*RES
1 *1883:X *2058:D 31.9795 
*END

*D_NET *154 0.000718305
*CONN
*I *2059:D I *D sky130_fd_sc_hd__dfxtp_1
*I *1884:X O *D sky130_fd_sc_hd__mux2_1
*CAP
1 *2059:D 0.000137859
2 *1884:X 0.000137859
3 *2059:D *1733:B 0.000233742
4 *2059:D *1879:S 5.57914e-05
5 *2059:D *457:31 0.000153054
*RES
1 *1884:X *2059:D 31.7652 
*END

*D_NET *155 0.00036142
*CONN
*I *2060:D I *D sky130_fd_sc_hd__dfxtp_1
*I *1886:X O *D sky130_fd_sc_hd__mux2_1
*CAP
1 *2060:D 0.000129049
2 *1886:X 0.000129049
3 *2060:D *2060:CLK 0.000103323
4 *2060:D *272:35 0
5 *2060:D *278:102 0
*RES
1 *1886:X *2060:D 29.9259 
*END

*D_NET *156 0.000949325
*CONN
*I *2061:D I *D sky130_fd_sc_hd__dfxtp_1
*I *1887:X O *D sky130_fd_sc_hd__mux2_1
*CAP
1 *2061:D 0.000161803
2 *1887:X 0.000161803
3 *2061:D *239:12 0.00010326
4 *2061:D *407:439 0.000141981
5 *2061:D *416:184 0.000101545
6 *2061:D *430:67 0.000223708
7 *2061:D *452:89 5.52238e-05
*RES
1 *1887:X *2061:D 31.6938 
*END

*D_NET *157 0.00113468
*CONN
*I *2062:D I *D sky130_fd_sc_hd__dfxtp_1
*I *1888:X O *D sky130_fd_sc_hd__mux2_1
*CAP
1 *2062:D 0.00046355
2 *1888:X 0.00046355
3 *2062:D *1888:A0 0
4 *2062:D *345:8 0
5 *2062:D *353:12 7.58571e-05
6 *2062:D *453:29 3.92854e-05
7 *2021:D *2062:D 9.24395e-05
*RES
1 *1888:X *2062:D 36.4259 
*END

*D_NET *158 0.000521476
*CONN
*I *2063:D I *D sky130_fd_sc_hd__dfxtp_1
*I *1889:X O *D sky130_fd_sc_hd__mux2_1
*CAP
1 *2063:D 0.000120079
2 *1889:X 0.000120079
3 *2063:D *275:121 0.000147136
4 *2063:D *277:30 5.5855e-05
5 *2063:D *409:176 0
6 *2063:D *455:102 7.8327e-05
*RES
1 *1889:X *2063:D 30.9438 
*END

*D_NET *159 0.00169737
*CONN
*I *2064:D I *D sky130_fd_sc_hd__dfxtp_1
*I *1890:X O *D sky130_fd_sc_hd__mux2_1
*CAP
1 *2064:D 0.000350346
2 *1890:X 0.000350346
3 *2064:D *1826:S 0
4 *2064:D *1853:S 0.000620242
5 *2064:D *347:6 2.72859e-05
6 *2064:D *455:20 0.000292701
7 *2064:D *456:16 9.25014e-06
8 *2023:D *2064:D 4.71964e-05
*RES
1 *1890:X *2064:D 37.283 
*END

*D_NET *160 0.000602405
*CONN
*I *2065:D I *D sky130_fd_sc_hd__dfxtp_1
*I *1891:X O *D sky130_fd_sc_hd__mux2_1
*CAP
1 *2065:D 0.000249531
2 *1891:X 0.000249531
3 *2065:D *283:10 0
4 *2065:D *456:22 0.000103343
*RES
1 *1891:X *2065:D 32.3545 
*END

*D_NET *161 0.00134944
*CONN
*I *2066:D I *D sky130_fd_sc_hd__dfxtp_1
*I *1892:X O *D sky130_fd_sc_hd__mux2_1
*CAP
1 *2066:D 0.000381051
2 *1892:X 0.000381051
3 *2066:D *1857:S 0
4 *2066:D *1875:A0 5.33005e-05
5 *2066:D *1875:A1 0
6 *2066:D *262:77 4.88429e-05
7 *2066:D *349:8 0
8 *2066:D *457:33 0.00015134
9 *2066:D *457:39 0.00027338
10 *2066:D *457:50 2.56601e-05
11 *2025:D *2066:D 3.48139e-05
*RES
1 *1892:X *2066:D 36.0152 
*END

*D_NET *162 0.000815862
*CONN
*I *2067:D I *D sky130_fd_sc_hd__dfxtp_1
*I *1893:X O *D sky130_fd_sc_hd__mux2_1
*CAP
1 *2067:D 0.000205368
2 *1893:X 0.000205368
3 *2067:D *1888:S 0.000175519
4 *2067:D *1893:A0 0
5 *2067:D *2080:A 0.000229607
*RES
1 *1893:X *2067:D 32.0687 
*END

*D_NET *163 0.0210942
*CONN
*I *1725:A I *D sky130_fd_sc_hd__or2_1
*I *1719:A1 I *D sky130_fd_sc_hd__o21a_1
*I *1743:A1 I *D sky130_fd_sc_hd__o21a_1
*I *1646:A I *D sky130_fd_sc_hd__or2_1
*I *1656:A1 I *D sky130_fd_sc_hd__o21a_1
*I *1630:A I *D sky130_fd_sc_hd__or2_1
*I *1640:A1 I *D sky130_fd_sc_hd__o21a_1
*I *1735:A1 I *D sky130_fd_sc_hd__o21a_1
*I *1622:Y O *D sky130_fd_sc_hd__inv_2
*CAP
1 *1725:A 2.3671e-05
2 *1719:A1 0.00111747
3 *1743:A1 0
4 *1646:A 0.000433926
5 *1656:A1 0.000327569
6 *1630:A 0
7 *1640:A1 0
8 *1735:A1 0.000237068
9 *1622:Y 1.88712e-05
10 *163:108 0.00234641
11 *163:73 0.00158198
12 *163:36 0.00112631
13 *163:22 0.00121376
14 *163:20 0.00132672
15 *163:16 0.000339996
16 *163:8 0.00138243
17 *1646:A *1660:A2 0
18 *1646:A *1783:S 0.000161845
19 *1646:A *164:34 0
20 *1646:A *407:167 0
21 *1656:A1 *410:88 0.000146523
22 *1656:A1 *421:82 4.56945e-05
23 *1719:A1 *1688:A 0
24 *1719:A1 *1714:A 0.000392297
25 *1719:A1 *1725:B 0.000153047
26 *1719:A1 *265:101 0
27 *1719:A1 *265:110 0
28 *1719:A1 *408:574 0
29 *1725:A *304:12 5.52302e-05
30 *1735:A1 *1636:B1 0.000175512
31 *1735:A1 *1640:B1 0.000261926
32 *1735:A1 *1735:B1 0.000743433
33 *1735:A1 *1739:B2 0.000998494
34 *1735:A1 *164:86 7.92975e-05
35 *163:8 *1622:A 1.02504e-05
36 *163:8 *1623:A 2.84494e-05
37 *163:16 *1622:A 9.25014e-06
38 *163:16 *1762:S 4.43256e-05
39 *163:16 *1949:CLK 0.000164117
40 *163:16 *164:8 0.000181803
41 *163:16 *263:110 0
42 *163:16 *410:43 1.98839e-05
43 *163:20 *1743:A2 7.50601e-05
44 *163:20 *1747:B2 2.31791e-05
45 *163:20 *164:18 0.00040406
46 *163:20 *267:71 8.68952e-05
47 *163:22 *1636:A1 0.000159687
48 *163:22 *164:18 7.6644e-05
49 *163:22 *263:95 0
50 *163:22 *263:110 0
51 *163:22 *267:71 0.000264031
52 *163:22 *416:138 1.3142e-05
53 *163:36 *1644:A2 1.92789e-05
54 *163:36 *260:16 0.000106552
55 *163:36 *263:95 0
56 *163:36 *267:56 2.8266e-06
57 *163:36 *267:71 0.000271874
58 *163:36 *270:30 0.000271352
59 *163:36 *422:26 0.000312222
60 *163:73 *1742:A3 0.000168741
61 *163:73 *1771:A1 0.000139907
62 *163:73 *1780:A1 0.000277897
63 *163:73 *410:88 0.000452891
64 *163:73 *454:129 0.000695773
65 *163:108 *1623:A 4.46186e-06
66 *163:108 *1724:A0 0.000904132
67 *163:108 *1731:A1 2.8266e-06
68 *163:108 *1949:CLK 4.88637e-05
69 *163:108 *304:12 0.000274288
70 *163:108 *425:16 0.000312209
71 *163:108 *425:40 1.54142e-05
72 *1931:D *163:73 0.000358109
73 *1933:D *1646:A 0
74 *1947:D *1719:A1 3.90513e-05
75 *1962:D *163:36 1.21258e-05
76 *2055:D *1646:A 0
77 *2055:D *163:73 0.000147136
78 *29:8 *163:36 6.05161e-06
*RES
1 *1622:Y *163:8 14.5321 
2 *163:8 *163:16 8.35714 
3 *163:16 *163:20 10.0893 
4 *163:20 *163:22 9.23214 
5 *163:22 *163:36 32.0357 
6 *163:36 *1735:A1 30.1214 
7 *163:36 *1640:A1 9.3 
8 *163:22 *1630:A 13.8 
9 *163:20 *163:73 22.5714 
10 *163:73 *1656:A1 13.8536 
11 *163:73 *1646:A 26.6214 
12 *163:16 *1743:A1 9.3 
13 *163:8 *163:108 26.0893 
14 *163:108 *1719:A1 35.5321 
15 *163:108 *1725:A 14.3357 
*END

*D_NET *164 0.0223704
*CONN
*I *1731:B2 I *D sky130_fd_sc_hd__a22o_1
*I *1747:B2 I *D sky130_fd_sc_hd__a22o_1
*I *1723:B2 I *D sky130_fd_sc_hd__a22o_1
*I *1644:B2 I *D sky130_fd_sc_hd__a22o_1
*I *1739:B2 I *D sky130_fd_sc_hd__a22o_1
*I *1636:B2 I *D sky130_fd_sc_hd__a22o_1
*I *1660:B2 I *D sky130_fd_sc_hd__a22o_1
*I *1652:B2 I *D sky130_fd_sc_hd__a22o_1
*I *1623:Y O *D sky130_fd_sc_hd__inv_2
*CAP
1 *1731:B2 0.000342846
2 *1747:B2 0.000262345
3 *1723:B2 0.00195304
4 *1644:B2 7.04493e-06
5 *1739:B2 0.000786029
6 *1636:B2 6.72835e-05
7 *1660:B2 3.68402e-05
8 *1652:B2 0.000266595
9 *1623:Y 0
10 *164:86 0.00207081
11 *164:73 0.0014856
12 *164:34 0.00110925
13 *164:20 0.00114292
14 *164:18 0.00164328
15 *164:8 0.001146
16 *164:4 0.000441891
17 *1636:B2 *1629:S0 0.000250201
18 *1636:B2 *410:53 0.000138005
19 *1644:B2 *1640:A2 2.26973e-05
20 *1644:B2 *1644:B1 4.6025e-06
21 *1644:B2 *265:34 3.43988e-06
22 *1652:B2 *1652:A1 8.69966e-05
23 *1652:B2 *1652:B1 1.92905e-05
24 *1652:B2 *1660:A1 2.07382e-05
25 *1660:B2 *1652:A2 4.1331e-06
26 *1660:B2 *1652:B1 0
27 *1660:B2 *421:10 7.83659e-05
28 *1723:B2 *270:16 0.000161134
29 *1723:B2 *407:248 0.000162849
30 *1731:B2 *1762:S 4.87854e-05
31 *1731:B2 *2078:A 0.000477787
32 *1731:B2 *409:133 0.000150447
33 *1731:B2 *410:39 0.000290434
34 *1731:B2 *425:8 0.000184745
35 *1739:B2 *1640:B1 4.43256e-05
36 *1739:B2 *1735:B1 7.32955e-05
37 *1739:B2 *1739:A1 3.11885e-05
38 *1739:B2 *1739:A2 7.48091e-05
39 *1739:B2 *1739:B1 2.59355e-05
40 *1739:B2 *1779:S 0.00020054
41 *1739:B2 *270:30 2.99025e-05
42 *1747:B2 *1622:A 0
43 *1747:B2 *1747:A1 0
44 *1747:B2 *1949:CLK 2.85279e-05
45 *1747:B2 *267:71 0
46 *1747:B2 *409:148 0
47 *1747:B2 *417:12 9.90367e-05
48 *164:8 *1762:S 6.94388e-05
49 *164:8 *410:39 5.52302e-05
50 *164:8 *410:43 0.000351169
51 *164:18 *1780:A1 5.09964e-05
52 *164:18 *1796:A1 0
53 *164:18 *1949:CLK 7.50505e-05
54 *164:18 *416:138 0.000158586
55 *164:18 *424:8 0.000180777
56 *164:34 *1652:B1 0
57 *164:34 *1762:A0 8.00806e-05
58 *164:34 *1774:S 0.00069576
59 *164:34 *1783:A1 0.000112995
60 *164:34 *1783:S 0
61 *164:34 *1880:A0 5.33005e-05
62 *164:34 *1880:A1 0.000185643
63 *164:34 *1880:S 2.89114e-05
64 *164:34 *407:167 0.000324306
65 *164:34 *421:10 9.91086e-05
66 *164:34 *454:20 1.50087e-05
67 *164:34 *454:22 0.000155373
68 *164:34 *454:26 5.33978e-05
69 *164:73 *1629:S0 0
70 *164:73 *1636:B1 0
71 *164:73 *1640:B1 2.59355e-05
72 *164:73 *1917:CLK 0
73 *164:73 *264:68 0.00103602
74 *164:73 *265:34 0.000149662
75 *164:73 *270:30 4.16984e-05
76 *164:86 *1636:B1 5.90443e-06
77 *164:86 *1640:A2 0.000154529
78 *164:86 *1640:B1 0.000175519
79 *164:86 *265:34 7.20085e-05
80 *1646:A *164:34 0
81 *1735:A1 *1739:B2 0.000998494
82 *1735:A1 *164:86 7.92975e-05
83 *1916:D *164:73 9.33907e-05
84 *1942:D *164:73 0.000527792
85 *2055:D *164:34 5.01117e-05
86 *33:16 *1652:B2 5.52238e-05
87 *163:16 *164:8 0.000181803
88 *163:20 *1747:B2 2.31791e-05
89 *163:20 *164:18 0.00040406
90 *163:22 *164:18 7.6644e-05
*RES
1 *1623:Y *164:4 9.3 
2 *164:4 *164:8 8.32143 
3 *164:8 *164:18 17.9464 
4 *164:18 *164:20 3.82143 
5 *164:20 *164:34 33.1786 
6 *164:34 *1652:B2 17.8357 
7 *164:34 *1660:B2 14.8357 
8 *164:20 *1636:B2 21.4607 
9 *164:18 *164:73 26.375 
10 *164:73 *1739:B2 25.3536 
11 *164:73 *164:86 8.72321 
12 *164:86 *1644:B2 14.0768 
13 *164:86 *1723:B2 28.1147 
14 *164:8 *1747:B2 18.5679 
15 *164:4 *1731:B2 19.7107 
*END

*D_NET *165 0.00708496
*CONN
*I *1748:A I *D sky130_fd_sc_hd__nor2_2
*I *1672:A1 I *D sky130_fd_sc_hd__o2111a_1
*I *1670:A1 I *D sky130_fd_sc_hd__a21oi_1
*I *1713:A I *D sky130_fd_sc_hd__xnor2_1
*I *1803:A I *D sky130_fd_sc_hd__and2_2
*I *1624:Y O *D sky130_fd_sc_hd__inv_2
*CAP
1 *1748:A 8.1997e-05
2 *1672:A1 0.00036913
3 *1670:A1 0
4 *1713:A 2.23854e-05
5 *1803:A 0.000200451
6 *1624:Y 0
7 *165:42 0.0015022
8 *165:29 0.00186776
9 *165:21 0.000898687
10 *165:4 0.000304828
11 *1672:A1 *1670:A2 2.89016e-05
12 *1672:A1 *1672:C1 1.32552e-05
13 *1672:A1 *1922:D 0
14 *1672:A1 *199:12 0.000319309
15 *1672:A1 *438:99 5.08481e-05
16 *1672:A1 *438:155 4.33438e-05
17 *1748:A *1711:A1 1.0562e-05
18 *1748:A *1711:A2 1.98839e-05
19 *1748:A *1711:B1 0.000139913
20 *1748:A *232:10 9.71197e-05
21 *1803:A *1624:A 0.000139913
22 *1803:A *1803:B 0.000120526
23 *1803:A *1822:B 1.04232e-05
24 *1803:A *1885:D 5.33005e-05
25 *1803:A *413:36 4.88637e-05
26 *165:21 *1711:A2 8.04781e-05
27 *165:21 *450:226 0
28 *165:29 *1706:A1 7.37591e-05
29 *165:29 *1711:A1 3.08907e-05
30 *165:29 *1711:A2 1.62539e-05
31 *165:29 *1997:CLK 2.27416e-05
32 *165:29 *1997:D 5.71472e-05
33 *165:29 *1997:RESET_B 0.000179995
34 *165:29 *232:10 0
35 *165:29 *411:164 5.06983e-05
36 *165:29 *411:179 2.05646e-05
37 *165:42 *1672:C1 3.05446e-05
38 *165:42 *1706:A1 7.31177e-05
39 *165:42 *1713:B 0.000105163
*RES
1 *1624:Y *165:4 9.3 
2 *165:4 *1803:A 13.9964 
3 *165:4 *165:21 6.59821 
4 *165:21 *165:29 14.7589 
5 *165:29 *1713:A 9.72857 
6 *165:29 *165:42 16.2857 
7 *165:42 *1670:A1 9.3 
8 *165:42 *1672:A1 25.7464 
9 *165:21 *1748:A 15.9696 
*END

*D_NET *166 0.000822576
*CONN
*I *1677:A2 I *D sky130_fd_sc_hd__a221o_1
*I *1625:Y O *D sky130_fd_sc_hd__inv_2
*CAP
1 *1677:A2 0.000210124
2 *1625:Y 0.000210124
3 *1677:A2 *1627:A 5.52238e-05
4 *1677:A2 *1675:A_N 5.52238e-05
5 *1677:A2 *1677:B2 9.41642e-05
6 *1677:A2 *216:18 3.28686e-05
7 *1677:A2 *446:10 2.77289e-05
8 *1677:A2 *462:29 0.000137119
9 *1677:A2 *485:8 0
*RES
1 *1625:Y *1677:A2 32.3054 
*END

*D_NET *167 0.00174819
*CONN
*I *1678:A2 I *D sky130_fd_sc_hd__o221ai_2
*I *1679:A2 I *D sky130_fd_sc_hd__a221o_1
*I *1626:Y O *D sky130_fd_sc_hd__inv_2
*CAP
1 *1678:A2 8.95883e-05
2 *1679:A2 6.99781e-05
3 *1626:Y 0.000340208
4 *167:6 0.000499775
5 *1678:A2 *458:42 0
6 *1679:A2 *1678:B1 0.000150632
7 *1679:A2 *1679:A1 1.46576e-05
8 *1679:A2 *169:6 1.46576e-05
9 *1679:A2 *215:12 5.33978e-05
10 *167:6 *1678:C1 0.000139913
11 *167:6 *1679:C1 0.000139913
12 *167:6 *458:18 9.90431e-05
13 *167:6 *458:42 8.12055e-05
14 *167:6 *461:14 5.52238e-05
*RES
1 *1626:Y *167:6 15.5857 
2 *167:6 *1679:A2 20.3937 
3 *167:6 *1678:A2 10.675 
*END

*D_NET *168 0.000597107
*CONN
*I *1677:B2 I *D sky130_fd_sc_hd__a221o_1
*I *1627:Y O *D sky130_fd_sc_hd__inv_2
*CAP
1 *1677:B2 0.000137586
2 *1627:Y 0.000137586
3 *1677:B2 *1675:A_N 0.00012401
4 *1677:B2 *1677:B1 8.66619e-06
5 *1677:B2 *1677:C1 6.65398e-05
6 *1677:B2 *216:18 2.85551e-05
7 *1677:A2 *1677:B2 9.41642e-05
*RES
1 *1627:Y *1677:B2 30.475 
*END

*D_NET *169 0.000916818
*CONN
*I *1678:B1 I *D sky130_fd_sc_hd__o221ai_2
*I *1679:B1 I *D sky130_fd_sc_hd__a221o_1
*I *1628:Y O *D sky130_fd_sc_hd__inv_2
*CAP
1 *1678:B1 0.000119672
2 *1679:B1 5.76216e-05
3 *1628:Y 9.52415e-05
4 *169:6 0.000272535
5 *1678:B1 *1628:A 0
6 *1678:B1 *215:12 1.91418e-05
7 *1678:B1 *458:12 1.19402e-05
8 *1678:B1 *458:18 6.04162e-05
9 *1678:B1 *483:10 0
10 *1679:B1 *1679:A1 6.05161e-06
11 *169:6 *1679:A1 0.000108907
12 *1679:A2 *1678:B1 0.000150632
13 *1679:A2 *169:6 1.46576e-05
*RES
1 *1628:Y *169:6 11.4786 
2 *169:6 *1679:B1 10.2643 
3 *169:6 *1678:B1 21.1571 
*END

*D_NET *170 0.000852097
*CONN
*I *1630:B I *D sky130_fd_sc_hd__or2_1
*I *1629:X O *D sky130_fd_sc_hd__mux4_1
*CAP
1 *1630:B 0.000211309
2 *1629:X 0.000211309
3 *1630:B *1781:A0 9.41642e-05
4 *1630:B *1781:A1 0.000265447
5 *1630:B *1781:S 2.28598e-05
6 *1630:B *231:45 4.70078e-05
*RES
1 *1629:X *1630:B 22.8321 
*END

*D_NET *171 0.00198579
*CONN
*I *1636:A1 I *D sky130_fd_sc_hd__a22o_1
*I *1630:X O *D sky130_fd_sc_hd__or2_1
*CAP
1 *1636:A1 0.00074325
2 *1630:X 0.00074325
3 *1636:A1 *1636:A2 3.18676e-05
4 *1636:A1 *263:95 4.79842e-05
5 *1636:A1 *263:110 6.16864e-05
6 *1636:A1 *424:14 0.000139907
7 *1636:A1 *424:25 4.08637e-05
8 *1916:D *1636:A1 1.72894e-05
9 *163:22 *1636:A1 0.000159687
*RES
1 *1630:X *1636:A1 40.9393 
*END

*D_NET *172 0.00387522
*CONN
*I *1632:A2 I *D sky130_fd_sc_hd__o21a_1
*I *1631:X O *D sky130_fd_sc_hd__mux4_1
*CAP
1 *1632:A2 0.00118901
2 *1631:X 0.00118901
3 *1632:A2 *407:69 0.000130419
4 *1632:A2 *407:71 0.000917786
5 *1632:A2 *409:160 2.89016e-05
6 *1632:A2 *409:166 0.000284047
7 *1632:A2 *436:48 0.000136039
*RES
1 *1631:X *1632:A2 42.1357 
*END

*D_NET *173 0.000348121
*CONN
*I *1636:A2 I *D sky130_fd_sc_hd__a22o_1
*I *1632:X O *D sky130_fd_sc_hd__o21a_1
*CAP
1 *1636:A2 0.000158127
2 *1632:X 0.000158127
3 *1636:A1 *1636:A2 3.18676e-05
*RES
1 *1632:X *1636:A2 21.2071 
*END

*D_NET *174 0.00412085
*CONN
*I *1635:A0 I *D sky130_fd_sc_hd__mux2_1
*I *1633:X O *D sky130_fd_sc_hd__mux4_1
*CAP
1 *1635:A0 0
2 *1633:X 0.00106655
3 *174:14 0.00106655
4 *174:14 *1633:A2 2.94103e-05
5 *174:14 *1633:S0 0
6 *174:14 *1634:A2 0
7 *174:14 *1634:S1 0.000687969
8 *174:14 *1635:A1 5.52302e-05
9 *174:14 *1635:S 0.000315165
10 *174:14 *1736:S1 0.000181165
11 *174:14 *1864:A0 0.000160914
12 *174:14 *273:52 4.8843e-05
13 *174:14 *363:12 7.4826e-05
14 *174:14 *408:158 0.000249486
15 *174:14 *426:32 0
16 *174:14 *455:55 0
17 *174:14 *455:102 0.000184745
*RES
1 *1633:X *174:14 42.55 
2 *174:14 *1635:A0 9.3 
*END

*D_NET *175 0.000658738
*CONN
*I *1635:A1 I *D sky130_fd_sc_hd__mux2_1
*I *1634:X O *D sky130_fd_sc_hd__mux4_1
*CAP
1 *1635:A1 0.000187645
2 *1634:X 0.000187645
3 *1635:A1 *274:31 7.95714e-05
4 *1635:A1 *274:53 6.10018e-06
5 *1635:A1 *426:98 0.00010326
6 *2016:D *1635:A1 3.92854e-05
7 *174:14 *1635:A1 5.52302e-05
*RES
1 *1634:X *1635:A1 31.6 
*END

*D_NET *176 0.00896844
*CONN
*I *1636:B1 I *D sky130_fd_sc_hd__a22o_1
*I *1635:X O *D sky130_fd_sc_hd__mux2_1
*CAP
1 *1636:B1 0.000717192
2 *1635:X 6.9986e-05
3 *176:12 0.00205105
4 *176:8 0.00140385
5 *1636:B1 *1629:A2 0.000148189
6 *1636:B1 *1629:S0 0.000333853
7 *1636:B1 *1640:A2 9.4736e-05
8 *1636:B1 *1772:A1 0
9 *1636:B1 *1772:S 2.84494e-05
10 *1636:B1 *1773:A1 0
11 *1636:B1 *1781:A1 0
12 *1636:B1 *264:26 0.000165985
13 *1636:B1 *265:34 0
14 *1636:B1 *265:55 0
15 *1636:B1 *408:384 3.92169e-05
16 *176:8 *273:52 9.80173e-05
17 *176:12 *1639:A2 5.66157e-05
18 *176:12 *1639:A3 0.00013554
19 *176:12 *1639:S1 0.00120472
20 *176:12 *1640:A2 0
21 *176:12 *1773:A1 0
22 *176:12 *1845:A0 3.75052e-05
23 *176:12 *1854:A1 0.000153047
24 *176:12 *1854:S 0.000100726
25 *176:12 *1889:A0 0
26 *176:12 *274:31 6.74911e-05
27 *176:12 *275:111 6.5185e-05
28 *176:12 *277:30 2.05938e-05
29 *176:12 *278:22 0
30 *176:12 *454:28 0
31 *176:12 *454:34 0
32 *176:12 *455:102 0
33 *176:12 *456:84 0.00107126
34 *1735:A1 *1636:B1 0.000175512
35 *1942:D *1636:B1 0
36 *1962:D *176:12 0
37 *1973:D *176:12 0.000723813
38 *164:73 *1636:B1 0
39 *164:86 *1636:B1 5.90443e-06
*RES
1 *1635:X *176:8 14.7464 
2 *176:8 *176:12 37.7143 
3 *176:12 *1636:B1 30.3179 
*END

*D_NET *177 0.00424552
*CONN
*I *1638:B I *D sky130_fd_sc_hd__or2_1
*I *1637:X O *D sky130_fd_sc_hd__mux4_1
*CAP
1 *1638:B 0
2 *1637:X 0.00140617
3 *177:18 0.00140617
4 *177:18 *1660:B1 0
5 *177:18 *1735:A2 0.000141985
6 *177:18 *1879:A1 9.05414e-05
7 *177:18 *1879:S 0.00048939
8 *177:18 *1935:CLK 1.58163e-05
9 *177:18 *1943:CLK 5.52302e-05
10 *177:18 *190:12 0.000464542
11 *177:18 *197:12 0
12 *1948:D *177:18 7.66284e-05
13 *2054:D *177:18 9.90431e-05
*RES
1 *1637:X *177:18 42.6571 
2 *177:18 *1638:B 9.3 
*END

*D_NET *178 0.00232661
*CONN
*I *1644:A1 I *D sky130_fd_sc_hd__a22o_1
*I *1638:X O *D sky130_fd_sc_hd__or2_1
*CAP
1 *1644:A1 0.000930458
2 *1638:X 0.000930458
3 *1644:A1 *1638:A 6.05161e-06
4 *1644:A1 *1639:A1 1.34754e-05
5 *1644:A1 *1943:CLK 1.21258e-05
6 *1644:A1 *267:30 0.000238706
7 *1917:D *1644:A1 9.53816e-06
8 *1943:D *1644:A1 0.000185794
*RES
1 *1638:X *1644:A1 30.2429 
*END

*D_NET *179 0.000863424
*CONN
*I *1640:A2 I *D sky130_fd_sc_hd__o21a_1
*I *1639:X O *D sky130_fd_sc_hd__mux4_1
*CAP
1 *1640:A2 0.000213129
2 *1639:X 0.000213129
3 *1640:A2 *1644:B1 1.27784e-05
4 *1640:A2 *263:32 9.90367e-05
5 *1636:B1 *1640:A2 9.4736e-05
6 *1644:B2 *1640:A2 2.26973e-05
7 *1962:D *1640:A2 5.33882e-05
8 *164:86 *1640:A2 0.000154529
9 *176:12 *1640:A2 0
*RES
1 *1639:X *1640:A2 32.6179 
*END

*D_NET *180 0.000417719
*CONN
*I *1644:A2 I *D sky130_fd_sc_hd__a22o_1
*I *1640:X O *D sky130_fd_sc_hd__o21a_1
*CAP
1 *1644:A2 9.14784e-05
2 *1640:X 9.14784e-05
3 *1644:A2 *265:34 9.02418e-05
4 *1962:D *1644:A2 0.000125241
5 *163:36 *1644:A2 1.92789e-05
*RES
1 *1640:X *1644:A2 29.7786 
*END

*D_NET *181 0.00380027
*CONN
*I *1643:A0 I *D sky130_fd_sc_hd__mux2_1
*I *1641:X O *D sky130_fd_sc_hd__mux4_1
*CAP
1 *1643:A0 0
2 *1641:X 0.00142445
3 *181:14 0.00142445
4 *181:14 *1641:A0 0
5 *181:14 *1641:A2 2.42493e-05
6 *181:14 *1641:A3 4.25619e-05
7 *181:14 *1641:S1 0
8 *181:14 *1643:A1 0.000274294
9 *181:14 *1828:S 0
10 *181:14 *1864:S 0
11 *181:14 *1865:A0 7.80714e-06
12 *181:14 *1891:A0 5.39166e-06
13 *181:14 *1970:CLK 9.01334e-05
14 *181:14 *275:44 0.000216862
15 *181:14 *429:12 7.92879e-05
16 *181:14 *429:73 0.000143288
17 *181:14 *429:84 6.75007e-05
*RES
1 *1641:X *181:14 43.0679 
2 *181:14 *1643:A0 9.3 
*END

*D_NET *182 0.00334002
*CONN
*I *1643:A1 I *D sky130_fd_sc_hd__mux2_1
*I *1642:X O *D sky130_fd_sc_hd__mux4_1
*CAP
1 *1643:A1 0.000855343
2 *1642:X 0.000855343
3 *1643:A1 *1642:A0 6.26673e-05
4 *1643:A1 *1642:A1 4.51495e-05
5 *1643:A1 *1642:A2 1.66955e-05
6 *1643:A1 *1642:A3 9.37334e-05
7 *1643:A1 *1642:S0 2.27416e-05
8 *1643:A1 *1810:A1 6.32754e-05
9 *1643:A1 *2003:CLK 0.000405733
10 *1643:A1 *183:8 2.15245e-05
11 *1643:A1 *276:117 0.000417184
12 *1643:A1 *407:449 3.61629e-06
13 *1643:A1 *407:463 1.40131e-05
14 *1643:A1 *429:73 0.000112916
15 *1643:A1 *429:84 7.57869e-05
16 *181:14 *1643:A1 0.000274294
*RES
1 *1642:X *1643:A1 45.0464 
*END

*D_NET *183 0.00779653
*CONN
*I *1644:B1 I *D sky130_fd_sc_hd__a22o_1
*I *1643:X O *D sky130_fd_sc_hd__mux2_1
*CAP
1 *1644:B1 0.00134902
2 *1643:X 0.000729782
3 *183:8 0.0020788
4 *1644:B1 *1639:S1 0
5 *1644:B1 *1744:A2 0.000148903
6 *1644:B1 *1744:S0 0
7 *1644:B1 *1746:A1 0
8 *1644:B1 *1782:A1 0.000435505
9 *1644:B1 *1808:A1 0.00032495
10 *1644:B1 *1845:A1 0.000178111
11 *1644:B1 *260:16 0
12 *1644:B1 *262:77 0
13 *1644:B1 *265:34 0.000405549
14 *1644:B1 *272:84 0.000385003
15 *1644:B1 *273:46 0.000202806
16 *1644:B1 *386:14 0.000320031
17 *1644:B1 *408:239 0.000371511
18 *1644:B1 *454:53 0.000171334
19 *1644:B1 *456:84 0
20 *183:8 *1838:A1 1.42064e-05
21 *183:8 *1838:S 0.000275218
22 *183:8 *2003:CLK 7.15962e-05
23 *183:8 *273:52 9.90367e-05
24 *1640:A2 *1644:B1 1.27784e-05
25 *1643:A1 *183:8 2.15245e-05
26 *1644:B2 *1644:B1 4.6025e-06
27 *1962:D *1644:B1 0.000196269
*RES
1 *1643:X *183:8 23.3714 
2 *183:8 *1644:B1 49.7464 
*END

*D_NET *184 0.00366337
*CONN
*I *1646:B I *D sky130_fd_sc_hd__or2_1
*I *1645:X O *D sky130_fd_sc_hd__mux4_1
*CAP
1 *1646:B 0.00114679
2 *1645:X 0.00114679
3 *1646:B *1645:A3 0.000126639
4 *1646:B *1647:S1 4.98872e-05
5 *1646:B *1652:A1 6.25963e-05
6 *1646:B *1654:B 0.000315165
7 *1646:B *1660:A1 0.00053128
8 *1646:B *1883:S 0
9 *1646:B *2073:A 8.18783e-05
10 *1646:B *266:65 1.24368e-05
11 *1646:B *408:484 4.46186e-06
12 *1646:B *408:493 0.000185446
*RES
1 *1645:X *1646:B 47.3143 
*END

*D_NET *185 0.00123915
*CONN
*I *1652:A1 I *D sky130_fd_sc_hd__a22o_1
*I *1646:X O *D sky130_fd_sc_hd__or2_1
*CAP
1 *1652:A1 0.000203151
2 *1646:X 0.000203151
3 *1652:A1 *1660:A1 0.000161849
4 *1646:B *1652:A1 6.25963e-05
5 *1652:B2 *1652:A1 8.69966e-05
6 *33:16 *1652:A1 0.000521406
*RES
1 *1646:X *1652:A1 25.3143 
*END

*D_NET *186 0.00211324
*CONN
*I *1648:A2 I *D sky130_fd_sc_hd__o21a_1
*I *1647:X O *D sky130_fd_sc_hd__mux4_1
*CAP
1 *1648:A2 0.000781823
2 *1647:X 0.000781823
3 *1648:A2 *1647:A2 0.00014291
4 *1648:A2 *1647:A3 4.63923e-05
5 *1648:A2 *1647:S0 1.92789e-05
6 *1648:A2 *1647:S1 0
7 *1648:A2 *1654:A 1.69961e-05
8 *1648:A2 *266:53 0.000144773
9 *1648:A2 *409:255 5.52302e-05
10 *1984:D *1648:A2 0.00012401
*RES
1 *1647:X *1648:A2 39.1179 
*END

*D_NET *187 0.000332301
*CONN
*I *1652:A2 I *D sky130_fd_sc_hd__a22o_1
*I *1648:X O *D sky130_fd_sc_hd__o21a_1
*CAP
1 *1652:A2 0.000148215
2 *1648:X 0.000148215
3 *1652:A2 *1648:B1 2.89114e-05
4 *1652:A2 *1652:B1 2.8266e-06
5 *1652:A2 *1654:A 0
6 *1652:A2 *421:10 0
7 *1660:B2 *1652:A2 4.1331e-06
*RES
1 *1648:X *1652:A2 29.7786 
*END

*D_NET *188 0.000588734
*CONN
*I *1651:A0 I *D sky130_fd_sc_hd__mux2_1
*I *1649:X O *D sky130_fd_sc_hd__mux4_1
*CAP
1 *1651:A0 0.000164659
2 *1649:X 0.000164659
3 *1651:A0 *2022:CLK 3.67257e-05
4 *1651:A0 *2050:CLK 6.5185e-05
5 *1651:A0 *190:12 0
6 *1651:A0 *197:12 0.000153047
7 *1651:A0 *408:247 4.45768e-06
*RES
1 *1649:X *1651:A0 30.9036 
*END

*D_NET *189 0.0037422
*CONN
*I *1651:A1 I *D sky130_fd_sc_hd__mux2_1
*I *1650:X O *D sky130_fd_sc_hd__mux4_1
*CAP
1 *1651:A1 0.00139511
2 *1650:X 0.00139511
3 *1651:A1 *1649:A2 6.56602e-06
4 *1651:A1 *1649:A3 0.000222147
5 *1651:A1 *1857:A1 0.000356022
6 *1651:A1 *1875:S 0.000106542
7 *1651:A1 *2050:CLK 5.06983e-05
8 *1651:A1 *253:10 0
9 *1651:A1 *457:39 8.46507e-06
10 *1651:A1 *457:50 5.19842e-06
11 *2025:D *1651:A1 5.39166e-06
12 *2050:D *1651:A1 0.000190955
*RES
1 *1650:X *1651:A1 46.0107 
*END

*D_NET *190 0.00758448
*CONN
*I *1652:B1 I *D sky130_fd_sc_hd__a22o_1
*I *1651:X O *D sky130_fd_sc_hd__mux2_1
*CAP
1 *1652:B1 0.000863522
2 *1651:X 0.000843479
3 *190:12 0.001707
4 *1652:B1 *1645:A1 0.000195547
5 *1652:B1 *1660:A1 5.52302e-05
6 *1652:B1 *1779:S 0
7 *1652:B1 *1783:A0 0.000150618
8 *1652:B1 *1784:A0 0
9 *1652:B1 *1945:CLK 0.000202016
10 *1652:B1 *309:14 0.000150618
11 *1652:B1 *407:69 0
12 *1652:B1 *408:402 9.53173e-05
13 *1652:B1 *408:484 0.000190086
14 *1652:B1 *416:138 9.59803e-05
15 *1652:B1 *421:10 0
16 *190:12 *1660:B1 0
17 *190:12 *1779:S 6.73361e-05
18 *190:12 *2050:CLK 4.86495e-05
19 *190:12 *197:12 0
20 *190:12 *253:10 0.00160363
21 *190:12 *408:402 0
22 *1651:A0 *190:12 0
23 *1652:A2 *1652:B1 2.8266e-06
24 *1652:B2 *1652:B1 1.92905e-05
25 *1660:B2 *1652:B1 0
26 *1945:D *1652:B1 0.000534365
27 *1952:D *1652:B1 0
28 *1953:D *1652:B1 0.000294422
29 *164:34 *1652:B1 0
30 *177:18 *190:12 0.000464542
*RES
1 *1651:X *190:12 36.5054 
2 *190:12 *1652:B1 37.9875 
*END

*D_NET *191 0.00187122
*CONN
*I *1654:B I *D sky130_fd_sc_hd__or2_1
*I *1653:X O *D sky130_fd_sc_hd__mux4_1
*CAP
1 *1654:B 0.000579265
2 *1653:X 0.000579265
3 *1654:B *1653:S1 0.000397527
4 *1646:B *1654:B 0.000315165
*RES
1 *1653:X *1654:B 30.225 
*END

*D_NET *192 0.00101909
*CONN
*I *1660:A1 I *D sky130_fd_sc_hd__a22o_1
*I *1654:X O *D sky130_fd_sc_hd__or2_1
*CAP
1 *1660:A1 0.000124998
2 *1654:X 0.000124998
3 *1646:B *1660:A1 0.00053128
4 *1652:A1 *1660:A1 0.000161849
5 *1652:B1 *1660:A1 5.52302e-05
6 *1652:B2 *1660:A1 2.07382e-05
*RES
1 *1654:X *1660:A1 23.6536 
*END

*D_NET *193 0.00177102
*CONN
*I *1656:A2 I *D sky130_fd_sc_hd__o21a_1
*I *1655:X O *D sky130_fd_sc_hd__mux4_1
*CAP
1 *1656:A2 0.000460554
2 *1655:X 0.000460554
3 *1656:A2 *1660:B1 0.000701356
4 *1656:A2 *1784:A0 7.83366e-05
5 *1656:A2 *1945:CLK 0
6 *1656:A2 *408:394 5.26048e-05
7 *1952:D *1656:A2 1.76135e-05
*RES
1 *1655:X *1656:A2 37.8857 
*END

*D_NET *194 0.00128348
*CONN
*I *1660:A2 I *D sky130_fd_sc_hd__a22o_1
*I *1656:X O *D sky130_fd_sc_hd__o21a_1
*CAP
1 *1660:A2 0.000258114
2 *1656:X 0.000258114
3 *1660:A2 *1648:B1 0.000299737
4 *1660:A2 *1783:S 0.000341788
5 *1660:A2 *421:78 0.000125724
6 *1646:A *1660:A2 0
*RES
1 *1656:X *1660:A2 35.0643 
*END

*D_NET *195 0.000470838
*CONN
*I *1659:A0 I *D sky130_fd_sc_hd__mux2_1
*I *1657:X O *D sky130_fd_sc_hd__mux4_1
*CAP
1 *1659:A0 7.05558e-05
2 *1657:X 7.05558e-05
3 *1659:A0 *1659:A1 4.88546e-05
4 *1659:A0 *2006:CLK 0.000227539
5 *1659:A0 *197:12 5.33334e-05
*RES
1 *1657:X *1659:A0 21.2071 
*END

*D_NET *196 0.0033197
*CONN
*I *1659:A1 I *D sky130_fd_sc_hd__mux2_1
*I *1658:X O *D sky130_fd_sc_hd__mux4_1
*CAP
1 *1659:A1 0.00142391
2 *1658:X 0.00142391
3 *1659:A1 *1657:A0 9.41642e-05
4 *1659:A1 *1657:A2 1.00442e-05
5 *1659:A1 *1657:A3 0.000135933
6 *1659:A1 *2006:CLK 1.32552e-05
7 *1659:A1 *197:12 0.00010096
8 *1659:A1 *408:278 6.86693e-05
9 *1659:A0 *1659:A1 4.88546e-05
*RES
1 *1658:X *1659:A1 35.8857 
*END

*D_NET *197 0.00912314
*CONN
*I *1660:B1 I *D sky130_fd_sc_hd__a22o_1
*I *1659:X O *D sky130_fd_sc_hd__mux2_1
*CAP
1 *1660:B1 0.00108759
2 *1659:X 0.00154226
3 *197:12 0.00262985
4 *1660:B1 *1648:B1 0.000592915
5 *1660:B1 *1779:S 0.000196526
6 *1660:B1 *1783:S 0
7 *1660:B1 *1784:A0 5.96033e-05
8 *1660:B1 *1943:CLK 0.000197984
9 *1660:B1 *2056:CLK 0.000166269
10 *1660:B1 *409:166 0
11 *1660:B1 *409:174 0
12 *1660:B1 *421:10 0.000407474
13 *1660:B1 *434:72 0.00058838
14 *197:12 *2050:CLK 2.6949e-05
15 *197:12 *272:84 5.31122e-05
16 *197:12 *409:174 0
17 *197:12 *409:176 0
18 *197:12 *409:180 0
19 *197:12 *428:17 8.96049e-05
20 *197:12 *428:19 5.35516e-05
21 *197:12 *428:23 2.8833e-05
22 *197:12 *428:66 0.000124849
23 *197:12 *428:82 5.72433e-05
24 *1651:A0 *197:12 0.000153047
25 *1656:A2 *1660:B1 0.000701356
26 *1659:A0 *197:12 5.33334e-05
27 *1659:A1 *197:12 0.00010096
28 *1935:D *197:12 0.000103267
29 *1952:D *1660:B1 5.80604e-05
30 *2057:D *197:12 5.01117e-05
31 *177:18 *1660:B1 0
32 *177:18 *197:12 0
33 *190:12 *1660:B1 0
34 *190:12 *197:12 0
*RES
1 *1659:X *197:12 44.2464 
2 *197:12 *1660:B1 44.6393 
*END

*D_NET *198 0.00262728
*CONN
*I *1670:A2 I *D sky130_fd_sc_hd__a21oi_1
*I *1662:B I *D sky130_fd_sc_hd__xnor2_1
*I *1672:A2 I *D sky130_fd_sc_hd__o2111a_1
*I *1661:X O *D sky130_fd_sc_hd__xor2_1
*CAP
1 *1670:A2 7.9173e-05
2 *1662:B 8.4475e-05
3 *1672:A2 0.00016191
4 *1661:X 0.000114845
5 *198:12 0.000300967
6 *198:10 0.000248601
7 *1662:B *199:12 2.59355e-05
8 *1670:A2 *1672:C1 9.76491e-05
9 *1672:A2 *1663:B 4.58194e-05
10 *1672:A2 *1672:C1 0.000318309
11 *1672:A2 *1672:D1 9.41642e-05
12 *1672:A2 *199:18 6.05161e-06
13 *1672:A2 *438:87 0.000195555
14 *1672:A2 *438:99 0.000175512
15 *198:10 *1672:C1 5.66157e-05
16 *198:10 *438:155 0.00013966
17 *198:10 *447:20 5.33005e-05
18 *198:12 *1672:C1 0.000201127
19 *198:12 *438:99 4.73656e-05
20 *198:12 *438:155 0.00015134
21 *1672:A1 *1670:A2 2.89016e-05
*RES
1 *1661:X *198:10 16.2821 
2 *198:10 *198:12 2.55357 
3 *198:12 *1672:A2 19.425 
4 *198:12 *1662:B 15.1571 
5 *198:10 *1670:A2 15.5679 
*END

*D_NET *199 0.00228091
*CONN
*I *1663:B I *D sky130_fd_sc_hd__xnor2_1
*I *1671:B I *D sky130_fd_sc_hd__or2_1
*I *1668:B I *D sky130_fd_sc_hd__nand2_1
*I *1662:Y O *D sky130_fd_sc_hd__xnor2_1
*CAP
1 *1663:B 0.000110911
2 *1671:B 0
3 *1668:B 1.8141e-05
4 *1662:Y 0.000257009
5 *199:18 0.000160468
6 *199:12 0.000510248
7 *1663:B *209:10 6.97972e-05
8 *1663:B *438:87 0.000129879
9 *1668:B *1671:A 5.71472e-05
10 *199:12 *1922:D 2.59355e-05
11 *199:12 *438:87 0.00024292
12 *199:12 *438:99 0.000117896
13 *199:18 *1671:A 0.00010096
14 *199:18 *1672:B1 4.14279e-05
15 *199:18 *1672:D1 4.10517e-05
16 *1662:B *199:12 2.59355e-05
17 *1672:A1 *199:12 0.000319309
18 *1672:A2 *1663:B 4.58194e-05
19 *1672:A2 *199:18 6.05161e-06
*RES
1 *1662:Y *199:12 24.3357 
2 *199:12 *199:18 3.44643 
3 *199:18 *1668:B 9.83571 
4 *199:18 *1671:B 9.3 
5 *199:12 *1663:B 21.1929 
*END

*D_NET *200 0.0012687
*CONN
*I *1667:S I *D sky130_fd_sc_hd__mux2_1
*I *1663:Y O *D sky130_fd_sc_hd__xnor2_1
*CAP
1 *1667:S 0.000457037
2 *1663:Y 0.000457037
3 *1667:S *1667:A0 0.000170654
4 *1667:S *1699:A1 1.46624e-05
5 *1667:S *1699:B1_N 0.000114077
6 *1667:S *1926:RESET_B 5.52302e-05
7 *1667:S *201:20 0
8 *1667:S *438:41 0
9 *1667:S *438:55 0
*RES
1 *1663:Y *1667:S 36.2964 
*END

*D_NET *201 0.00139462
*CONN
*I *1665:B I *D sky130_fd_sc_hd__nor2_1
*I *1666:B I *D sky130_fd_sc_hd__and2_1
*I *1664:X O *D sky130_fd_sc_hd__xor2_1
*CAP
1 *1665:B 6.41688e-05
2 *1666:B 0
3 *1664:X 0.000473842
4 *201:20 0.000538011
5 *1665:B *1665:A 4.99544e-05
6 *1665:B *1667:A0 2.14757e-05
7 *1665:B *412:271 5.55463e-05
8 *201:20 *1664:B 0
9 *201:20 *1667:A0 8.43535e-06
10 *201:20 *1667:A1 0.000132146
11 *201:20 *1699:A1 5.10384e-05
12 *201:20 *432:45 0
13 *1667:S *201:20 0
*RES
1 *1664:X *201:20 25.5857 
2 *201:20 *1666:B 9.3 
3 *201:20 *1665:B 11.05 
*END

*D_NET *202 0.00127251
*CONN
*I *1667:A0 I *D sky130_fd_sc_hd__mux2_1
*I *1665:Y O *D sky130_fd_sc_hd__nor2_1
*CAP
1 *1667:A0 0.000174279
2 *1665:Y 0.000174279
3 *1667:A0 *1665:A 5.52302e-05
4 *1667:A0 *1667:A1 0.000125724
5 *1667:A0 *1699:A1 0.000181796
6 *1667:A0 *1699:A2 0.000307336
7 *1667:A0 *412:271 5.33005e-05
8 *1665:B *1667:A0 2.14757e-05
9 *1667:S *1667:A0 0.000170654
10 *201:20 *1667:A0 8.43535e-06
*RES
1 *1665:Y *1667:A0 33.2607 
*END

*D_NET *203 0.000678034
*CONN
*I *1667:A1 I *D sky130_fd_sc_hd__mux2_1
*I *1666:X O *D sky130_fd_sc_hd__and2_1
*CAP
1 *1667:A1 0.000119697
2 *1666:X 0.000119697
3 *1667:A1 *1699:A1 0.00018077
4 *1667:A0 *1667:A1 0.000125724
5 *201:20 *1667:A1 0.000132146
*RES
1 *1666:X *1667:A1 31.0107 
*END

*D_NET *204 0.00131208
*CONN
*I *1699:A1 I *D sky130_fd_sc_hd__a21boi_2
*I *1673:A I *D sky130_fd_sc_hd__and2_1
*I *1667:X O *D sky130_fd_sc_hd__mux2_1
*CAP
1 *1699:A1 0.00018451
2 *1673:A 6.58974e-05
3 *1667:X 0
4 *204:4 0.000250407
5 *1673:A *1699:B1_N 2.89016e-05
6 *1699:A1 *1699:A2 0.000112467
7 *1699:A1 *1699:B1_N 8.5696e-05
8 *1699:A1 *225:8 5.30637e-06
9 *1699:A1 *438:41 0.000150625
10 *1667:A0 *1699:A1 0.000181796
11 *1667:A1 *1699:A1 0.00018077
12 *1667:S *1699:A1 1.46624e-05
13 *201:20 *1699:A1 5.10384e-05
*RES
1 *1667:X *204:4 9.3 
2 *204:4 *1673:A 10.5679 
3 *204:4 *1699:A1 24.0857 
*END

*D_NET *205 0.00101124
*CONN
*I *1672:B1 I *D sky130_fd_sc_hd__o2111a_1
*I *1668:Y O *D sky130_fd_sc_hd__nand2_1
*CAP
1 *1672:B1 0.000301708
2 *1668:Y 0.000301708
3 *1672:B1 *1671:A 0.000188586
4 *1672:B1 *1672:D1 0.000177815
5 *199:18 *1672:B1 4.14279e-05
*RES
1 *1668:Y *1672:B1 22.8321 
*END

*D_NET *206 0.000222637
*CONN
*I *1670:B1 I *D sky130_fd_sc_hd__a21oi_1
*I *1669:Y O *D sky130_fd_sc_hd__xnor2_1
*CAP
1 *1670:B1 0.000111319
2 *1669:Y 0.000111319
3 *1670:B1 *1927:D 0
4 *1670:B1 *438:155 0
*RES
1 *1669:Y *1670:B1 29.5464 
*END

*D_NET *207 0.00167885
*CONN
*I *1672:C1 I *D sky130_fd_sc_hd__o2111a_1
*I *1670:Y O *D sky130_fd_sc_hd__a21oi_1
*CAP
1 *1672:C1 0.00045483
2 *1670:Y 0.00045483
3 *1672:C1 *1662:A 5.16852e-05
4 *1670:A2 *1672:C1 9.76491e-05
5 *1672:A1 *1672:C1 1.32552e-05
6 *1672:A2 *1672:C1 0.000318309
7 *165:42 *1672:C1 3.05446e-05
8 *198:10 *1672:C1 5.66157e-05
9 *198:12 *1672:C1 0.000201127
*RES
1 *1670:Y *1672:C1 38.1179 
*END

*D_NET *208 0.000577155
*CONN
*I *1672:D1 I *D sky130_fd_sc_hd__o2111a_1
*I *1671:X O *D sky130_fd_sc_hd__or2_1
*CAP
1 *1672:D1 0.000130805
2 *1671:X 0.000130805
3 *1672:D1 *209:10 2.51343e-06
4 *1672:A2 *1672:D1 9.41642e-05
5 *1672:B1 *1672:D1 0.000177815
6 *199:18 *1672:D1 4.10517e-05
*RES
1 *1671:X *1672:D1 21.6179 
*END

*D_NET *209 0.00276878
*CONN
*I *1699:A2 I *D sky130_fd_sc_hd__a21boi_2
*I *1673:B I *D sky130_fd_sc_hd__and2_1
*I *1672:X O *D sky130_fd_sc_hd__o2111a_1
*CAP
1 *1699:A2 0.000393178
2 *1673:B 0.00015862
3 *1672:X 0.000362173
4 *209:10 0.000913971
5 *1673:B *412:271 5.41794e-05
6 *1673:B *438:41 9.7478e-05
7 *1699:A2 *225:8 1.32552e-05
8 *209:10 *1663:A 0.000129868
9 *209:10 *412:271 0.000117189
10 *209:10 *438:41 2.49484e-05
11 *209:10 *438:55 1.18064e-05
12 *209:10 *438:87 0
13 *1663:B *209:10 6.97972e-05
14 *1667:A0 *1699:A2 0.000307336
15 *1672:D1 *209:10 2.51343e-06
16 *1699:A1 *1699:A2 0.000112467
17 *2106:A *1673:B 0
*RES
1 *1672:X *209:10 21.05 
2 *209:10 *1673:B 16.9607 
3 *209:10 *1699:A2 19.8357 
*END

*D_NET *210 0.000650262
*CONN
*I *1679:C1 I *D sky130_fd_sc_hd__a221o_1
*I *1674:X O *D sky130_fd_sc_hd__and2b_1
*CAP
1 *1679:C1 0.0001432
2 *1674:X 0.0001432
3 *1679:C1 *458:18 0.000128154
4 *1679:C1 *462:12 1.91512e-05
5 *1679:C1 *483:10 7.6644e-05
6 *167:6 *1679:C1 0.000139913
*RES
1 *1674:X *1679:C1 30.6 
*END

*D_NET *211 0.00158076
*CONN
*I *1678:C1 I *D sky130_fd_sc_hd__o221ai_2
*I *1675:Y O *D sky130_fd_sc_hd__nand2b_1
*CAP
1 *1678:C1 0.000313954
2 *1675:Y 0.000313954
3 *1678:C1 *1625:A 5.33005e-05
4 *1678:C1 *1675:A_N 0
5 *1678:C1 *1677:C1 0.000125731
6 *1678:C1 *446:59 1.41029e-05
7 *1678:C1 *458:42 0.000453378
8 *1678:C1 *459:29 0.000137983
9 *1678:C1 *462:12 2.84398e-05
10 *1678:C1 *483:10 0
11 *167:6 *1678:C1 0.000139913
*RES
1 *1675:Y *1678:C1 35.1 
*END

*D_NET *212 0.00152679
*CONN
*I *1677:C1 I *D sky130_fd_sc_hd__a221o_1
*I *1676:X O *D sky130_fd_sc_hd__xor2_1
*CAP
1 *1677:C1 0.000570995
2 *1676:X 0.000570995
3 *1677:C1 *1675:A_N 2.05987e-05
4 *1677:C1 *1928:D 0
5 *1677:C1 *458:42 0.000171935
6 *1677:B2 *1677:C1 6.65398e-05
7 *1678:C1 *1677:C1 0.000125731
*RES
1 *1676:X *1677:C1 35.9036 
*END

*D_NET *213 0.00133407
*CONN
*I *1680:A I *D sky130_fd_sc_hd__nor3_1
*I *1681:A1 I *D sky130_fd_sc_hd__o31a_1
*I *1677:X O *D sky130_fd_sc_hd__a221o_1
*CAP
1 *1680:A 0.000393239
2 *1681:A1 8.4973e-05
3 *1677:X 3.65885e-05
4 *213:6 0.000514801
5 *1680:A *1680:B 1.32552e-05
6 *1680:A *1680:C 9.26374e-05
7 *1680:A *214:14 4.59075e-05
8 *1680:A *215:12 5.52302e-05
9 *1681:A1 *1677:B1 0
10 *1681:A1 *1680:B 3.99614e-06
11 *1681:A1 *1680:C 0
12 *1681:A1 *214:14 6.68521e-05
13 *1681:A1 *216:18 1.33343e-05
14 *213:6 *216:18 1.32552e-05
*RES
1 *1677:X *213:6 9.83571 
2 *213:6 *1681:A1 11.2821 
3 *213:6 *1680:A 14.675 
*END

*D_NET *214 0.000977403
*CONN
*I *1681:A2 I *D sky130_fd_sc_hd__o31a_1
*I *1680:B I *D sky130_fd_sc_hd__nor3_1
*I *1678:Y O *D sky130_fd_sc_hd__o221ai_2
*CAP
1 *1681:A2 0
2 *1680:B 0.00014981
3 *1678:Y 0.000139541
4 *214:14 0.000289352
5 *1680:B *1680:C 0.000111048
6 *1680:B *2117:A 5.52238e-05
7 *1680:B *215:12 1.21289e-05
8 *214:14 *1680:C 1.04232e-05
9 *214:14 *1681:B1 0
10 *214:14 *215:12 7.98646e-05
11 *214:14 *462:29 0
12 *1680:A *1680:B 1.32552e-05
13 *1680:A *214:14 4.59075e-05
14 *1681:A1 *1680:B 3.99614e-06
15 *1681:A1 *214:14 6.68521e-05
*RES
1 *1678:Y *214:14 21.6214 
2 *214:14 *1680:B 12.7464 
3 *214:14 *1681:A2 9.3 
*END

*D_NET *215 0.00102459
*CONN
*I *1681:A3 I *D sky130_fd_sc_hd__o31a_1
*I *1680:C I *D sky130_fd_sc_hd__nor3_1
*I *1679:X O *D sky130_fd_sc_hd__a221o_1
*CAP
1 *1681:A3 0
2 *1680:C 8.48247e-05
3 *1679:X 0.000150074
4 *215:12 0.000234899
5 *215:12 *1679:A1 4.06875e-05
6 *215:12 *1681:B1 5.01213e-05
7 *215:12 *485:8 3.01126e-05
8 *1678:B1 *215:12 1.91418e-05
9 *1679:A2 *215:12 5.33978e-05
10 *1680:A *1680:C 9.26374e-05
11 *1680:A *215:12 5.52302e-05
12 *1680:B *1680:C 0.000111048
13 *1680:B *215:12 1.21289e-05
14 *1681:A1 *1680:C 0
15 *214:14 *1680:C 1.04232e-05
16 *214:14 *215:12 7.98646e-05
*RES
1 *1679:X *215:12 22.6036 
2 *215:12 *1680:C 11.925 
3 *215:12 *1681:A3 9.3 
*END

*D_NET *216 0.00716577
*CONN
*I *1683:B I *D sky130_fd_sc_hd__nor2_1
*I *1685:C I *D sky130_fd_sc_hd__and3_1
*I *1686:A2 I *D sky130_fd_sc_hd__a21oi_1
*I *1682:B I *D sky130_fd_sc_hd__and2_1
*I *1681:X O *D sky130_fd_sc_hd__o31a_1
*CAP
1 *1683:B 0
2 *1685:C 0.000284136
3 *1686:A2 0
4 *1682:B 0.00026083
5 *1681:X 0.00160165
6 *216:37 0.000379821
7 *216:22 0.000528624
8 *216:18 0.00177376
9 *1682:B *1684:A 0.000250998
10 *1682:B *407:6 0.000142856
11 *1682:B *407:611 0.000230155
12 *1685:C *1684:B 5.80706e-06
13 *1685:C *1685:B 0
14 *1685:C *2070:A 0.000202828
15 *1685:C *2071:A 3.44781e-05
16 *1685:C *220:8 0.000143542
17 *1685:C *409:16 8.90835e-05
18 *216:18 *1674:A_N 5.70439e-05
19 *216:18 *1677:B1 3.20791e-05
20 *216:18 *1684:B 3.30352e-05
21 *216:18 *1688:B 3.58427e-05
22 *216:18 *1905:D 6.55205e-05
23 *216:18 *1905:RESET_B 2.51837e-05
24 *216:18 *2032:D 0.000165511
25 *216:18 *418:16 0.00048402
26 *216:18 *418:20 3.14193e-05
27 *216:22 *1683:A 0
28 *216:22 *1684:B 6.5185e-05
29 *216:22 *2027:CLK 0
30 *216:37 *1684:A 4.78056e-05
31 *216:37 *1684:B 0.000106552
32 *216:37 *1685:B 0
33 *216:37 *407:624 0
34 *1677:A2 *216:18 3.28686e-05
35 *1677:B2 *216:18 2.85551e-05
36 *1681:A1 *216:18 1.33343e-05
37 *213:6 *216:18 1.32552e-05
*RES
1 *1681:X *216:18 34.8893 
2 *216:18 *216:22 7.05357 
3 *216:22 *1682:B 21.05 
4 *216:22 *216:37 2.55357 
5 *216:37 *1686:A2 13.8 
6 *216:37 *1685:C 20.4875 
7 *216:18 *1683:B 9.3 
*END

*D_NET *217 0.00147374
*CONN
*I *1684:A I *D sky130_fd_sc_hd__nor2_1
*I *1682:X O *D sky130_fd_sc_hd__and2_1
*CAP
1 *1684:A 0.000542174
2 *1682:X 0.000542174
3 *1684:A *1685:B 1.19402e-05
4 *1684:A *1686:A1 5.52302e-05
5 *1684:A *407:624 2.34204e-05
6 *1682:B *1684:A 0.000250998
7 *216:37 *1684:A 4.78056e-05
*RES
1 *1682:X *1684:A 35.7786 
*END

*D_NET *218 0.00144836
*CONN
*I *1684:B I *D sky130_fd_sc_hd__nor2_1
*I *1688:B I *D sky130_fd_sc_hd__xnor2_1
*I *1683:Y O *D sky130_fd_sc_hd__nor2_1
*CAP
1 *1684:B 0.000267675
2 *1688:B 0.000142111
3 *1683:Y 0
4 *218:4 0.000409785
5 *1684:B *2027:CLK 2.56694e-05
6 *1684:B *2027:D 2.59355e-05
7 *1684:B *2071:A 0.000146474
8 *1688:B *1683:A 0.000142856
9 *1688:B *2032:D 4.14279e-05
10 *1685:C *1684:B 5.80706e-06
11 *216:18 *1684:B 3.30352e-05
12 *216:18 *1688:B 3.58427e-05
13 *216:22 *1684:B 6.5185e-05
14 *216:37 *1684:B 0.000106552
*RES
1 *1683:Y *218:4 9.3 
2 *218:4 *1688:B 12.6214 
3 *218:4 *1684:B 23.8536 
*END

*D_NET *219 0.00212559
*CONN
*I *1689:B I *D sky130_fd_sc_hd__and2_1
*I *1687:A I *D sky130_fd_sc_hd__nor2_1
*I *1690:B I *D sky130_fd_sc_hd__nor2_1
*I *1685:X O *D sky130_fd_sc_hd__and3_1
*CAP
1 *1689:B 0.000241828
2 *1687:A 0
3 *1690:B 0.0001136
4 *1685:X 0.000196435
5 *219:21 0.000347164
6 *219:6 0.00041537
7 *1689:B *1691:B 0
8 *1689:B *2028:D 0.000104974
9 *1689:B *221:8 0
10 *1689:B *409:16 0
11 *1689:B *417:91 5.33433e-05
12 *1689:B *417:102 6.62783e-05
13 *1690:B *1690:A 0.000188586
14 *1690:B *2033:D 0.000232399
15 *219:6 *1690:A 4.88546e-05
16 *219:6 *1692:B 5.33433e-05
17 *219:6 *409:16 1.39726e-05
18 *219:21 *1691:B 0
19 *219:21 *2070:A 4.94455e-05
20 *219:21 *222:8 0
*RES
1 *1685:X *219:6 11.8893 
2 *219:6 *1690:B 13.05 
3 *219:6 *219:21 6.44643 
4 *219:21 *1687:A 13.8 
5 *219:21 *1689:B 18.7643 
*END

*D_NET *220 0.00152059
*CONN
*I *1687:B I *D sky130_fd_sc_hd__nor2_1
*I *1692:B I *D sky130_fd_sc_hd__xnor2_1
*I *1686:Y O *D sky130_fd_sc_hd__a21oi_1
*CAP
1 *1687:B 0.000194594
2 *1692:B 1.99167e-05
3 *1686:Y 0.000118383
4 *220:8 0.000332893
5 *1687:B *1685:B 2.82057e-05
6 *1687:B *2070:A 5.72433e-05
7 *1687:B *409:16 0
8 *1687:B *410:22 0.000183726
9 *1692:B *409:16 9.90431e-05
10 *220:8 *1685:B 8.79872e-05
11 *220:8 *2070:A 2.37761e-05
12 *220:8 *304:12 0.000177941
13 *1685:C *220:8 0.000143542
14 *219:6 *1692:B 5.33433e-05
*RES
1 *1686:Y *220:8 18.175 
2 *220:8 *1692:B 14.7464 
3 *220:8 *1687:B 18.2464 
*END

*D_NET *221 0.00282432
*CONN
*I *1693:B I *D sky130_fd_sc_hd__nor2_1
*I *1694:B I *D sky130_fd_sc_hd__nand2_1
*I *1691:A I *D sky130_fd_sc_hd__nor2_1
*I *1689:X O *D sky130_fd_sc_hd__and2_1
*CAP
1 *1693:B 3.08973e-05
2 *1694:B 0.000129236
3 *1691:A 0.000248383
4 *1689:X 0.000111354
5 *221:12 0.000595102
6 *221:8 0.000359736
7 *1691:A *1691:B 0.000186662
8 *1691:A *446:151 0.000316252
9 *1694:B *1694:A 0.000158272
10 *1694:B *1695:B 0
11 *221:8 *1693:A 5.33005e-05
12 *221:8 *417:102 0.000183713
13 *221:12 *1694:A 2.61337e-05
14 *221:12 *1695:B 0
15 *221:12 *2029:CLK 0.000153054
16 *221:12 *223:10 0.000128154
17 *221:12 *410:10 8.98897e-05
18 *221:12 *417:108 5.41794e-05
19 *1689:B *221:8 0
*RES
1 *1689:X *221:8 11.9071 
2 *221:8 *221:12 9.78571 
3 *221:12 *1691:A 19.6929 
4 *221:12 *1694:B 16.8893 
5 *221:8 *1693:B 9.83571 
*END

*D_NET *222 0.00162196
*CONN
*I *1691:B I *D sky130_fd_sc_hd__nor2_1
*I *1696:B I *D sky130_fd_sc_hd__xnor2_1
*I *1690:Y O *D sky130_fd_sc_hd__nor2_1
*CAP
1 *1691:B 0.000434107
2 *1696:B 0
3 *1690:Y 9.65057e-05
4 *222:8 0.000530613
5 *1691:B *1689:A 9.24395e-05
6 *1691:B *2029:D 5.33786e-05
7 *1691:B *410:10 0
8 *1691:B *410:16 0
9 *1691:B *417:108 0
10 *1691:B *446:151 0.000186662
11 *222:8 *2034:D 4.15914e-05
12 *222:8 *417:108 0
13 *1689:B *1691:B 0
14 *1691:A *1691:B 0.000186662
15 *219:21 *1691:B 0
16 *219:21 *222:8 0
*RES
1 *1690:Y *222:8 15.4429 
2 *222:8 *1696:B 13.8 
3 *222:8 *1691:B 22.9786 
*END

*D_NET *223 0.000673083
*CONN
*I *1698:B I *D sky130_fd_sc_hd__xnor2_1
*I *1695:A_N I *D sky130_fd_sc_hd__and2b_1
*I *1693:Y O *D sky130_fd_sc_hd__nor2_1
*CAP
1 *1698:B 0.000142017
2 *1695:A_N 4.26984e-05
3 *1693:Y 6.16949e-05
4 *223:10 0.000246411
5 *1698:B *2030:D 4.01768e-05
6 *223:10 *1695:B 1.19309e-05
7 *221:12 *223:10 0.000128154
*RES
1 *1693:Y *223:10 19.9429 
2 *223:10 *1695:A_N 9.83571 
3 *223:10 *1698:B 11.8893 
*END

*D_NET *224 0.000885538
*CONN
*I *1697:B I *D sky130_fd_sc_hd__xnor2_1
*I *1695:B I *D sky130_fd_sc_hd__and2b_1
*I *1694:Y O *D sky130_fd_sc_hd__nand2_1
*CAP
1 *1697:B 5.65919e-05
2 *1695:B 0.000301756
3 *1694:Y 4.98824e-05
4 *224:6 0.00040823
5 *224:6 *1694:A 5.71472e-05
6 *1694:B *1695:B 0
7 *221:12 *1695:B 0
8 *223:10 *1695:B 1.19309e-05
*RES
1 *1694:Y *224:6 10.2464 
2 *224:6 *1695:B 23.5857 
3 *224:6 *1697:B 10.2464 
*END

*D_NET *225 0.00467282
*CONN
*I *1701:B I *D sky130_fd_sc_hd__xor2_1
*I *2116:A I *D sky130_fd_sc_hd__buf_8
*I *1702:C I *D sky130_fd_sc_hd__and3_1
*I *1699:Y O *D sky130_fd_sc_hd__a21boi_2
*CAP
1 *1701:B 4.04288e-05
2 *2116:A 0.000478558
3 *1702:C 0.000226544
4 *1699:Y 0.00106155
5 *225:10 0.000762
6 *225:8 0.00115888
7 *1701:B *1994:D 1.24368e-05
8 *1701:B *411:14 5.85866e-05
9 *1702:C *411:16 0.000518983
10 *2116:A *1706:A2 0
11 *2116:A *1994:D 1.88048e-05
12 *2116:A *1995:D 0
13 *2116:A *412:10 0
14 *2116:A *432:98 0
15 *225:8 *1994:D 3.30352e-05
16 *225:8 *411:14 0.000217094
17 *225:10 *411:14 1.21289e-05
18 *225:10 *411:16 5.52302e-05
19 *1699:A1 *225:8 5.30637e-06
20 *1699:A2 *225:8 1.32552e-05
*RES
1 *1699:Y *225:8 22.9964 
2 *225:8 *225:10 1.35714 
3 *225:10 *1702:C 14.2107 
4 *225:10 *2116:A 26.3179 
5 *225:8 *1701:B 10.6929 
*END

*D_NET *226 0.000509146
*CONN
*I *1705:B I *D sky130_fd_sc_hd__xnor2_1
*I *1700:Y O *D sky130_fd_sc_hd__nor2_1
*CAP
1 *1705:B 3.48078e-05
2 *1700:Y 3.48078e-05
3 *1705:B *1700:B 0.000185643
4 *1705:B *1712:B 2.44318e-05
5 *1705:B *423:29 0.000229456
*RES
1 *1700:Y *1705:B 20.7786 
*END

*D_NET *227 0.00151455
*CONN
*I *1704:A I *D sky130_fd_sc_hd__nor2_1
*I *1707:B I *D sky130_fd_sc_hd__xor2_1
*I *1702:X O *D sky130_fd_sc_hd__and3_1
*CAP
1 *1704:A 0.000153322
2 *1707:B 0
3 *1702:X 0.000203323
4 *227:8 0.000356645
5 *1704:A *1995:D 0.000196177
6 *1704:A *2000:CLK 0.000343217
7 *1704:A *228:8 7.34455e-06
8 *227:8 *1995:CLK 3.15739e-05
9 *227:8 *1995:D 9.1469e-05
10 *227:8 *228:8 0.000131481
11 *227:8 *432:98 0
*RES
1 *1702:X *227:8 18.175 
2 *227:8 *1707:B 13.8 
3 *227:8 *1704:A 19.0143 
*END

*D_NET *228 0.00157576
*CONN
*I *1704:B I *D sky130_fd_sc_hd__nor2_1
*I *1708:B I *D sky130_fd_sc_hd__xnor2_1
*I *1703:Y O *D sky130_fd_sc_hd__a21oi_1
*CAP
1 *1704:B 0.000123694
2 *1708:B 6.12412e-05
3 *1703:Y 0.000190578
4 *228:8 0.000375513
5 *1704:B *2000:CLK 0.000196269
6 *1704:B *2000:D 0.000128154
7 *1704:B *413:23 0
8 *1704:B *413:36 0
9 *1708:B *450:8 5.33334e-05
10 *1708:B *450:12 1.74352e-05
11 *228:8 *1702:B 3.90513e-05
12 *228:8 *1995:CLK 3.34295e-05
13 *228:8 *2000:CLK 0.000153047
14 *228:8 *412:33 6.5185e-05
15 *228:8 *413:23 0
16 *1704:A *228:8 7.34455e-06
17 *227:8 *228:8 0.000131481
*RES
1 *1703:Y *228:8 19.0857 
2 *228:8 *1708:B 15.1571 
3 *228:8 *1704:B 16.8893 
*END

*D_NET *229 0.000344378
*CONN
*I *1713:B I *D sky130_fd_sc_hd__xnor2_1
*I *1706:X O *D sky130_fd_sc_hd__a31o_1
*CAP
1 *1713:B 2.53145e-05
2 *1706:X 2.53145e-05
3 *1713:B *1706:A1 0.000188586
4 *165:42 *1713:B 0.000105163
*RES
1 *1706:X *1713:B 20.3679 
*END

*D_NET *230 0.0040135
*CONN
*I *1758:D I *D sky130_fd_sc_hd__and4b_4
*I *1710:D I *D sky130_fd_sc_hd__nand4_4
*I *1776:D I *D sky130_fd_sc_hd__and4bb_4
*I *1767:C I *D sky130_fd_sc_hd__nand4b_4
*I *1709:X O *D sky130_fd_sc_hd__and2_2
*CAP
1 *1758:D 0.000662067
2 *1710:D 0
3 *1776:D 6.81679e-05
4 *1767:C 2.59948e-05
5 *1709:X 0.000111263
6 *230:36 0.000731623
7 *230:25 0.000211064
8 *230:14 0.000210598
9 *1758:D *1758:B 4.99616e-05
10 *1758:D *1758:C 0.000135923
11 *1758:D *1813:D 0.000178847
12 *1758:D *239:12 8.66324e-05
13 *1758:D *246:10 9.24395e-05
14 *1758:D *270:16 2.84026e-05
15 *1758:D *411:126 1.00073e-05
16 *1758:D *447:12 0.000140933
17 *1767:C *265:26 1.58163e-05
18 *1767:C *416:180 2.59355e-05
19 *1776:D *1776:B_N 5.33005e-05
20 *1776:D *1785:A 4.43157e-05
21 *1776:D *265:26 5.33005e-05
22 *1776:D *265:101 0.000130419
23 *1776:D *447:20 8.00315e-05
24 *230:14 *246:10 0.000121125
25 *230:14 *261:8 5.52238e-05
26 *230:14 *412:119 3.53786e-05
27 *230:14 *416:180 7.83587e-05
28 *230:25 *239:12 1.31516e-05
29 *230:25 *246:10 3.90513e-05
30 *230:25 *265:26 0.000146474
31 *230:25 *412:119 0.000187019
32 *230:36 *239:12 8.56716e-05
33 *230:36 *246:10 7.15687e-05
34 *230:36 *265:26 3.34366e-05
*RES
1 *1709:X *230:14 16.6393 
2 *230:14 *1767:C 14.3357 
3 *230:14 *230:25 2.85714 
4 *230:25 *1776:D 16.3893 
5 *230:25 *230:36 2.25 
6 *230:36 *1710:D 13.8 
7 *230:36 *1758:D 25.9429 
*END

*D_NET *231 0.0264047
*CONN
*I *1712:A I *D sky130_fd_sc_hd__and2_1
*I *1714:B I *D sky130_fd_sc_hd__xnor2_1
*I *1878:S I *D sky130_fd_sc_hd__mux2_1
*I *1880:S I *D sky130_fd_sc_hd__mux2_1
*I *1881:S I *D sky130_fd_sc_hd__mux2_1
*I *1882:S I *D sky130_fd_sc_hd__mux2_1
*I *1884:S I *D sky130_fd_sc_hd__mux2_1
*I *1883:S I *D sky130_fd_sc_hd__mux2_1
*I *1879:S I *D sky130_fd_sc_hd__mux2_1
*I *1877:S I *D sky130_fd_sc_hd__mux2_1
*I *1710:Y O *D sky130_fd_sc_hd__nand4_4
*CAP
1 *1712:A 0.000658739
2 *1714:B 0
3 *1878:S 0.00013611
4 *1880:S 0.000201553
5 *1881:S 0
6 *1882:S 0.000785146
7 *1884:S 0
8 *1883:S 0.00070756
9 *1879:S 0.000702476
10 *1877:S 0
11 *1710:Y 0
12 *231:107 0.000272849
13 *231:59 0.00147538
14 *231:55 0.00124046
15 *231:51 0.00242594
16 *231:45 0.0018679
17 *231:30 0.00148829
18 *231:24 0.000956348
19 *231:12 0.00102837
20 *231:4 0.00102424
21 *1712:A *1705:A 1.54142e-05
22 *1712:A *1712:B 5.33334e-05
23 *1712:A *1910:D 5.86416e-05
24 *1712:A *1929:CLK 0.000183726
25 *1712:A *2002:D 3.69697e-05
26 *1712:A *423:29 0.000139907
27 *1712:A *423:33 3.34295e-05
28 *1712:A *477:10 0.000265726
29 *1878:S *1759:A0 0.000243635
30 *1878:S *266:19 0.000437227
31 *1878:S *270:91 9.88232e-05
32 *1879:S *1761:A0 6.8646e-06
33 *1879:S *1770:A0 4.02462e-05
34 *1879:S *1879:A1 0.000239712
35 *1879:S *263:55 0.000936441
36 *1879:S *457:31 0
37 *1880:S *409:160 0.000104246
38 *1880:S *410:57 0
39 *1880:S *454:28 0.000202825
40 *1882:S *1639:A0 9.27779e-05
41 *1882:S *1639:A1 0.00012501
42 *1882:S *1763:A0 5.57727e-05
43 *1882:S *1773:A0 0.000132081
44 *1882:S *1882:A1 0.000199698
45 *1882:S *324:10 0.00010326
46 *1882:S *409:166 3.79197e-05
47 *1882:S *409:172 0.000108218
48 *1882:S *409:174 0
49 *1882:S *455:102 0
50 *1882:S *455:104 0.000177411
51 *1882:S *455:110 5.01876e-06
52 *1882:S *455:145 0
53 *1882:S *456:86 4.72917e-05
54 *1882:S *456:92 0.000165487
55 *1883:S *1765:A0 0.000202835
56 *1883:S *1765:S 0.000139653
57 *1883:S *1944:CLK 9.25014e-06
58 *1883:S *263:55 0.000609054
59 *1883:S *266:65 8.47011e-05
60 *1883:S *408:484 0
61 *1883:S *436:52 0.000103267
62 *1883:S *436:58 0.000417891
63 *1883:S *457:18 0
64 *1883:S *457:29 9.6224e-05
65 *1883:S *457:31 0
66 *1883:S *457:138 5.52238e-05
67 *231:12 *1705:A 3.18676e-05
68 *231:12 *1714:A 0.000753573
69 *231:12 *1715:B 4.79842e-05
70 *231:12 *1998:D 0
71 *231:12 *265:101 0
72 *231:12 *423:10 0.000103041
73 *231:12 *423:12 0.000208379
74 *231:12 *423:14 7.6021e-05
75 *231:24 *1718:A0 4.43256e-05
76 *231:24 *1718:S0 5.33005e-05
77 *231:24 *1719:A2 9.41642e-05
78 *231:24 *1768:A1 0.000306317
79 *231:24 *1768:S 2.28598e-05
80 *231:24 *1938:CLK 9.41642e-05
81 *231:24 *311:12 0.000164481
82 *231:24 *407:234 0.000196262
83 *231:24 *409:52 0.000197977
84 *231:24 *451:177 1.65169e-05
85 *231:30 *311:12 0.000112506
86 *231:30 *451:177 0.000138249
87 *231:45 *1629:A2 6.98553e-06
88 *231:45 *1629:A3 0.000355164
89 *231:45 *1781:A1 3.06878e-06
90 *231:45 *1781:S 0.00042349
91 *231:45 *1877:A0 1.07719e-05
92 *231:45 *408:394 9.57273e-06
93 *231:45 *451:177 0.00018372
94 *231:51 *1629:A0 0.000127439
95 *231:51 *1763:A0 5.38209e-05
96 *231:51 *1881:A1 9.25014e-06
97 *231:51 *410:57 0
98 *231:51 *454:28 0.000167031
99 *231:55 *1655:A3 9.66073e-06
100 *231:55 *1934:CLK 3.30352e-05
101 *231:55 *1953:CLK 6.28241e-05
102 *231:55 *436:69 0.000128875
103 *231:59 *436:58 5.33005e-05
104 *231:59 *436:69 8.46829e-05
105 *231:107 *1881:A1 0.000116481
106 *231:107 *410:57 0
107 *1630:B *231:45 4.70078e-05
108 *1646:B *1883:S 0
109 *1934:D *1882:S 7.83587e-05
110 *1934:D *231:55 5.05572e-05
111 *1936:D *1883:S 3.5707e-05
112 *1953:D *231:55 5.33091e-06
113 *1980:D *1879:S 7.58664e-05
114 *2059:D *1879:S 5.57914e-05
115 *164:34 *1880:S 2.89114e-05
116 *177:18 *1879:S 0.00048939
*RES
1 *1710:Y *231:4 9.3 
2 *231:4 *231:12 20.8929 
3 *231:12 *231:24 22.0893 
4 *231:24 *231:30 3.85714 
5 *231:30 *1877:S 9.3 
6 *231:30 *231:45 24.5 
7 *231:45 *231:51 11.9821 
8 *231:51 *231:55 14.4107 
9 *231:55 *231:59 5.85714 
10 *231:59 *1879:S 33.1393 
11 *231:59 *1883:S 32.8357 
12 *231:55 *1884:S 9.3 
13 *231:51 *1882:S 38.925 
14 *231:45 *231:107 1.64286 
15 *231:107 *1881:S 13.8 
16 *231:107 *1880:S 19.3179 
17 *231:24 *1878:S 23.8893 
18 *231:12 *1714:B 9.3 
19 *231:4 *1712:A 38.1571 
*END

*D_NET *232 0.00361549
*CONN
*I *1715:B I *D sky130_fd_sc_hd__xor2_1
*I *1712:B I *D sky130_fd_sc_hd__and2_1
*I *1711:X O *D sky130_fd_sc_hd__a41o_1
*CAP
1 *1715:B 0.000166767
2 *1712:B 0.000567375
3 *1711:X 0.00041175
4 *232:10 0.00114589
5 *1712:B *1700:B 0.000606983
6 *1712:B *1929:CLK 1.02936e-05
7 *1712:B *1997:D 0.000180777
8 *1712:B *423:29 2.60984e-05
9 *1715:B *1776:C 1.17968e-05
10 *1715:B *2002:CLK 0
11 *1715:B *265:101 0
12 *1715:B *423:14 0
13 *232:10 *1710:A 0
14 *232:10 *1711:A1 0
15 *232:10 *1711:A2 0.000114733
16 *232:10 *1711:B1 4.43256e-05
17 *232:10 *1776:C 5.24274e-05
18 *232:10 *2002:CLK 0
19 *232:10 *246:10 0
20 *232:10 *411:153 0
21 *232:10 *411:175 0
22 *232:10 *411:203 0
23 *232:10 *414:8 5.33978e-05
24 *1705:B *1712:B 2.44318e-05
25 *1712:A *1712:B 5.33334e-05
26 *1748:A *232:10 9.71197e-05
27 *165:29 *232:10 0
28 *231:12 *1715:B 4.79842e-05
*RES
1 *1711:X *232:10 21.7643 
2 *232:10 *1712:B 23.5321 
3 *232:10 *1715:B 16.9607 
*END

*D_NET *233 0.00124838
*CONN
*I *1717:B I *D sky130_fd_sc_hd__or2_1
*I *1716:X O *D sky130_fd_sc_hd__mux4_1
*CAP
1 *1717:B 0.000237368
2 *1716:X 0.000237368
3 *1717:B *1719:A2 3.51442e-05
4 *1717:B *270:16 0.000313293
5 *1717:B *407:248 9.99586e-05
6 *1717:B *412:182 0.000125731
7 *1717:B *450:161 2.51343e-06
8 *1717:B *452:32 0.000197009
*RES
1 *1716:X *1717:B 34.9393 
*END

*D_NET *234 0.000528639
*CONN
*I *1723:A1 I *D sky130_fd_sc_hd__a22o_1
*I *1717:X O *D sky130_fd_sc_hd__or2_1
*CAP
1 *1723:A1 0.000121819
2 *1717:X 0.000121819
3 *1723:A1 *1719:A2 5.03772e-05
4 *1723:A1 *1723:A2 0.00015304
5 *1723:A1 *264:8 8.15843e-05
*RES
1 *1717:X *1723:A1 30.4929 
*END

*D_NET *235 0.00300551
*CONN
*I *1719:A2 I *D sky130_fd_sc_hd__o21a_1
*I *1718:X O *D sky130_fd_sc_hd__mux4_1
*CAP
1 *1719:A2 0.00093954
2 *1718:X 0.00093954
3 *1719:A2 *1718:A2 6.98553e-06
4 *1719:A2 *1718:A3 8.83199e-06
5 *1719:A2 *1718:S0 5.56205e-05
6 *1719:A2 *1719:B1 5.52238e-05
7 *1719:A2 *407:234 5.41794e-05
8 *1719:A2 *407:248 0.000168794
9 *1719:A2 *408:384 0.000167998
10 *1719:A2 *409:52 2.59355e-05
11 *1719:A2 *409:63 1.98839e-05
12 *1719:A2 *452:32 0.000383288
13 *1717:B *1719:A2 3.51442e-05
14 *1723:A1 *1719:A2 5.03772e-05
15 *231:24 *1719:A2 9.41642e-05
*RES
1 *1718:X *1719:A2 44.3679 
*END

*D_NET *236 0.000325117
*CONN
*I *1723:A2 I *D sky130_fd_sc_hd__a22o_1
*I *1719:X O *D sky130_fd_sc_hd__o21a_1
*CAP
1 *1723:A2 4.40883e-05
2 *1719:X 4.40883e-05
3 *1723:A2 *246:10 8.39e-05
4 *1723:A1 *1723:A2 0.00015304
*RES
1 *1719:X *1723:A2 29.5464 
*END

*D_NET *237 0.00271146
*CONN
*I *1722:A0 I *D sky130_fd_sc_hd__mux2_1
*I *1720:X O *D sky130_fd_sc_hd__mux4_1
*CAP
1 *1722:A0 0.00101936
2 *1720:X 0.00101936
3 *1722:A0 *1720:A0 0
4 *1722:A0 *1720:A2 1.59935e-05
5 *1722:A0 *1720:S0 2.11419e-05
6 *1722:A0 *1722:A1 5.52302e-05
7 *1722:A0 *1851:A1 6.44414e-05
8 *1722:A0 *1869:A1 0
9 *1722:A0 *272:25 0
10 *1722:A0 *277:92 0.000379873
11 *1722:A0 *335:10 0
12 *1722:A0 *351:10 3.99771e-05
13 *1722:A0 *430:14 0
14 *2019:D *1722:A0 9.60875e-05
*RES
1 *1720:X *1722:A0 45.4571 
*END

*D_NET *238 0.00044644
*CONN
*I *1722:A1 I *D sky130_fd_sc_hd__mux2_1
*I *1721:X O *D sky130_fd_sc_hd__mux4_1
*CAP
1 *1722:A1 0.000122338
2 *1721:X 0.000122338
3 *1722:A1 *1722:S 0.000146533
4 *1722:A0 *1722:A1 5.52302e-05
*RES
1 *1721:X *1722:A1 21.1893 
*END

*D_NET *239 0.00794352
*CONN
*I *1723:B1 I *D sky130_fd_sc_hd__a22o_1
*I *1722:X O *D sky130_fd_sc_hd__mux2_1
*CAP
1 *1723:B1 0
2 *1722:X 0.000384322
3 *239:12 0.00143003
4 *239:8 0.00181435
5 *239:8 *1721:A0 0.000155729
6 *239:8 *1722:S 4.87953e-05
7 *239:12 *1746:S 3.69697e-05
8 *239:12 *1833:S 0
9 *239:12 *1841:D 2.56694e-05
10 *239:12 *1842:S 2.8046e-05
11 *239:12 *2020:CLK 0.000222878
12 *239:12 *2082:A 8.15939e-05
13 *239:12 *246:10 0
14 *239:12 *264:8 0.000723113
15 *239:12 *268:38 6.26559e-05
16 *239:12 *407:427 0.000106403
17 *239:12 *407:439 0.000218726
18 *239:12 *409:63 0.000139787
19 *239:12 *411:53 0.000197262
20 *239:12 *412:119 0.000360816
21 *239:12 *416:180 0.000451567
22 *239:12 *416:182 1.31516e-05
23 *239:12 *416:184 0.000439677
24 *239:12 *451:86 0.000342488
25 *239:12 *451:101 0.000246064
26 *239:12 *452:32 0.000124717
27 *1758:D *239:12 8.66324e-05
28 *2061:D *239:12 0.00010326
29 *230:25 *239:12 1.31516e-05
30 *230:36 *239:12 8.56716e-05
*RES
1 *1722:X *239:8 18.4429 
2 *239:8 *239:12 47.125 
3 *239:12 *1723:B1 9.3 
*END

*D_NET *240 0.00102173
*CONN
*I *1725:B I *D sky130_fd_sc_hd__or2_1
*I *1724:X O *D sky130_fd_sc_hd__mux4_1
*CAP
1 *1725:B 0.000356247
2 *1724:X 0.000356247
3 *1725:B *1947:CLK 2.59355e-05
4 *1725:B *246:10 0
5 *1725:B *265:110 0
6 *1719:A1 *1725:B 0.000153047
7 *1947:D *1725:B 0.00013025
*RES
1 *1724:X *1725:B 32.9571 
*END

*D_NET *241 0.000916593
*CONN
*I *1731:A1 I *D sky130_fd_sc_hd__a22o_1
*I *1725:X O *D sky130_fd_sc_hd__or2_1
*CAP
1 *1731:A1 0.000269054
2 *1725:X 0.000269054
3 *1731:A1 *1685:B 6.8646e-06
4 *1731:A1 *1731:A2 5.71472e-05
5 *1731:A1 *408:570 0.000272371
6 *1731:A1 *408:574 3.92757e-05
7 *163:108 *1731:A1 2.8266e-06
*RES
1 *1725:X *1731:A1 33.1714 
*END

*D_NET *242 0.00257962
*CONN
*I *1727:A2 I *D sky130_fd_sc_hd__o21a_1
*I *1726:X O *D sky130_fd_sc_hd__mux4_1
*CAP
1 *1727:A2 0.00088994
2 *1726:X 0.00088994
3 *1727:A2 *1726:A0 6.44591e-05
4 *1727:A2 *1726:A2 0.000135298
5 *1727:A2 *1727:B1 3.34366e-05
6 *1727:A2 *1913:CLK 1.18064e-05
7 *1727:A2 *392:10 8.58196e-05
8 *1727:A2 *408:30 0.000405996
9 *1727:A2 *417:87 1.17968e-05
10 *1727:A2 *417:91 4.58194e-05
11 *1913:D *1727:A2 0
12 *1979:D *1727:A2 5.30637e-06
*RES
1 *1726:X *1727:A2 41.5821 
*END

*D_NET *243 0.000698858
*CONN
*I *1731:A2 I *D sky130_fd_sc_hd__a22o_1
*I *1727:X O *D sky130_fd_sc_hd__o21a_1
*CAP
1 *1731:A2 0.000177667
2 *1727:X 0.000177667
3 *1731:A2 *1727:B1 8.91726e-05
4 *1731:A2 *410:24 8.15939e-05
5 *1731:A1 *1731:A2 5.71472e-05
6 *1913:D *1731:A2 0.000115611
*RES
1 *1727:X *1731:A2 32.6357 
*END

*D_NET *244 0.000847952
*CONN
*I *1730:A0 I *D sky130_fd_sc_hd__mux2_1
*I *1728:X O *D sky130_fd_sc_hd__mux4_1
*CAP
1 *1730:A0 0.0002688
2 *1728:X 0.0002688
3 *1730:A0 *1730:A1 0.000133468
4 *1730:A0 *409:98 0.000176883
5 *1730:A0 *416:180 0
6 *1730:A0 *416:184 0
*RES
1 *1728:X *1730:A0 34.1 
*END

*D_NET *245 0.00159355
*CONN
*I *1730:A1 I *D sky130_fd_sc_hd__mux2_1
*I *1729:X O *D sky130_fd_sc_hd__mux4_1
*CAP
1 *1730:A1 0.0005439
2 *1729:X 0.0005439
3 *1730:A1 *1841:A_N 7.3237e-05
4 *1730:A1 *2020:CLK 2.59355e-05
5 *1730:A1 *408:134 0.000127051
6 *1730:A1 *416:180 3.92854e-05
7 *1730:A1 *416:182 2.84398e-05
8 *1730:A1 *416:184 7.83366e-05
9 *1730:A0 *1730:A1 0.000133468
*RES
1 *1729:X *1730:A1 36.2429 
*END

*D_NET *246 0.00806302
*CONN
*I *1731:B1 I *D sky130_fd_sc_hd__a22o_1
*I *1730:X O *D sky130_fd_sc_hd__mux2_1
*CAP
1 *1731:B1 0
2 *1730:X 7.47612e-05
3 *246:10 0.00154888
4 *246:8 0.00162364
5 *246:8 *1841:A_N 1.74352e-05
6 *246:8 *1841:B 5.33005e-05
7 *246:10 *1719:B1 0.001646
8 *246:10 *1768:A0 4.23086e-05
9 *246:10 *1777:A0 0.000116481
10 *246:10 *1841:B 0.000171375
11 *246:10 *264:8 0
12 *246:10 *265:26 0.000168939
13 *246:10 *265:101 0.000355443
14 *246:10 *265:110 0.000340093
15 *246:10 *303:10 0.000148189
16 *246:10 *409:94 0.000235903
17 *246:10 *410:24 3.34366e-05
18 *246:10 *411:64 0.000129185
19 *246:10 *411:153 0.00017364
20 *246:10 *412:54 0.000173804
21 *246:10 *412:80 0.000193833
22 *246:10 *412:91 0.000171375
23 *246:10 *412:106 0.000218734
24 *246:10 *416:180 1.81805e-05
25 *1723:A2 *246:10 8.39e-05
26 *1725:B *246:10 0
27 *1758:D *246:10 9.24395e-05
28 *1913:D *246:10 0
29 *230:14 *246:10 0.000121125
30 *230:25 *246:10 3.90513e-05
31 *230:36 *246:10 7.15687e-05
32 *232:10 *246:10 0
33 *239:12 *246:10 0
*RES
1 *1730:X *246:8 14.7464 
2 *246:8 *246:10 47.4821 
3 *246:10 *1731:B1 13.8 
*END

*D_NET *247 0.00153909
*CONN
*I *1733:B I *D sky130_fd_sc_hd__or2_1
*I *1732:X O *D sky130_fd_sc_hd__mux4_1
*CAP
1 *1733:B 0.000474455
2 *1732:X 0.000474455
3 *1733:B *1775:A1 0.00010096
4 *1733:B *2059:CLK 9.71197e-05
5 *1733:B *270:47 5.33882e-05
6 *1733:B *433:122 0.000104974
7 *2059:D *1733:B 0.000233742
*RES
1 *1732:X *1733:B 36.4571 
*END

*D_NET *248 0.0013711
*CONN
*I *1739:A1 I *D sky130_fd_sc_hd__a22o_1
*I *1733:X O *D sky130_fd_sc_hd__or2_1
*CAP
1 *1739:A1 0.000200443
2 *1733:X 0.000200443
3 *1739:A1 *1739:B1 5.33005e-05
4 *1739:A1 *1779:A0 0.000227532
5 *1739:A1 *1779:A1 1.56e-05
6 *1739:A1 *1779:S 2.32625e-05
7 *1739:A1 *263:55 0
8 *1739:A1 *270:30 0.000569213
9 *1739:A1 *436:77 5.01213e-05
10 *1739:B2 *1739:A1 3.11885e-05
*RES
1 *1733:X *1739:A1 34.4036 
*END

*D_NET *249 0.00115184
*CONN
*I *1735:A2 I *D sky130_fd_sc_hd__o21a_1
*I *1734:X O *D sky130_fd_sc_hd__mux4_1
*CAP
1 *1735:A2 0.000376254
2 *1734:X 0.000376254
3 *1735:A2 *1638:A 7.43578e-06
4 *1735:A2 *1943:CLK 7.30689e-05
5 *1735:A2 *409:172 0.00012422
6 *1735:A2 *434:72 5.26184e-05
7 *177:18 *1735:A2 0.000141985
*RES
1 *1734:X *1735:A2 34.475 
*END

*D_NET *250 0.000280109
*CONN
*I *1739:A2 I *D sky130_fd_sc_hd__a22o_1
*I *1735:X O *D sky130_fd_sc_hd__o21a_1
*CAP
1 *1739:A2 3.21835e-05
2 *1735:X 3.21835e-05
3 *1739:A2 *270:30 0.000140933
4 *1739:B2 *1739:A2 7.48091e-05
*RES
1 *1735:X *1739:A2 19.9571 
*END

*D_NET *251 0.00233825
*CONN
*I *1738:A0 I *D sky130_fd_sc_hd__mux2_1
*I *1736:X O *D sky130_fd_sc_hd__mux4_1
*CAP
1 *1738:A0 0.000572622
2 *1736:X 0.000572622
3 *1738:A0 *1736:A2 5.71472e-05
4 *1738:A0 *1736:A3 1.92789e-05
5 *1738:A0 *1738:A1 0.000186669
6 *1738:A0 *1853:S 4.46186e-06
7 *1738:A0 *1888:A0 4.75428e-05
8 *1738:A0 *1888:S 0.000119441
9 *1738:A0 *1974:CLK 0.000230482
10 *1738:A0 *419:12 0.00015134
11 *1738:A0 *419:100 0.000201127
12 *1738:A0 *419:113 0.000175519
13 *2015:D *1738:A0 0
14 *2046:D *1738:A0 0
*RES
1 *1736:X *1738:A0 42.2786 
*END

*D_NET *252 0.000913903
*CONN
*I *1738:A1 I *D sky130_fd_sc_hd__mux2_1
*I *1737:X O *D sky130_fd_sc_hd__mux4_1
*CAP
1 *1738:A1 0.000254572
2 *1737:X 0.000254572
3 *1738:A1 *1888:S 7.83587e-05
4 *1738:A1 *1974:CLK 1.38323e-05
5 *1738:A1 *2005:CLK 4.58194e-05
6 *1738:A0 *1738:A1 0.000186669
7 *2038:D *1738:A1 8.00806e-05
*RES
1 *1737:X *1738:A1 31.6357 
*END

*D_NET *253 0.009242
*CONN
*I *1739:B1 I *D sky130_fd_sc_hd__a22o_1
*I *1738:X O *D sky130_fd_sc_hd__mux2_1
*CAP
1 *1739:B1 2.04426e-05
2 *1738:X 0.000381857
3 *253:10 0.00170136
4 *253:8 0.00206278
5 *253:8 *1738:S 0.000495832
6 *253:8 *1974:CLK 3.18676e-05
7 *253:10 *1649:S1 2.19778e-05
8 *253:10 *1734:S1 5.35423e-05
9 *253:10 *1809:A1 0.000125731
10 *253:10 *1826:S 0.00062496
11 *253:10 *1875:S 0
12 *253:10 *2050:CLK 0
13 *253:10 *2057:CLK 0.000198698
14 *253:10 *272:99 0.000961787
15 *253:10 *379:10 8.31218e-05
16 *253:10 *408:249 0.000319544
17 *253:10 *408:257 6.27272e-06
18 *253:10 *408:402 9.64695e-05
19 *253:10 *416:45 0
20 *253:10 *428:66 0
21 *253:10 *428:82 0
22 *253:10 *434:12 0
23 *253:10 *434:23 0.000196269
24 *253:10 *436:77 0
25 *253:10 *455:73 0.00012401
26 *1651:A1 *253:10 0
27 *1739:A1 *1739:B1 5.33005e-05
28 *1739:B2 *1739:B1 2.59355e-05
29 *1992:D *253:10 5.26091e-05
30 *190:12 *253:10 0.00160363
*RES
1 *1738:X *253:8 19.2643 
2 *253:8 *253:10 47.1786 
3 *253:10 *1739:B1 14.3357 
*END

*D_NET *254 0.000726672
*CONN
*I *1741:B I *D sky130_fd_sc_hd__or2_1
*I *1740:X O *D sky130_fd_sc_hd__mux4_1
*CAP
1 *1741:B 0.000196089
2 *1740:X 0.000196089
3 *1741:B *1740:S1 0
4 *1741:B *424:71 0
5 *1916:D *1741:B 0.000334493
*RES
1 *1740:X *1741:B 31.975 
*END

*D_NET *255 0.00144378
*CONN
*I *1747:A1 I *D sky130_fd_sc_hd__a22o_1
*I *1741:X O *D sky130_fd_sc_hd__or2_1
*CAP
1 *1747:A1 0.00042179
2 *1741:X 0.00042179
3 *1747:A1 *267:71 0.000121573
4 *1747:A1 *409:148 0.000478626
5 *1747:B2 *1747:A1 0
*RES
1 *1741:X *1747:A1 33.8857 
*END

*D_NET *256 0.000457764
*CONN
*I *1743:A2 I *D sky130_fd_sc_hd__o21a_1
*I *1742:X O *D sky130_fd_sc_hd__mux4_1
*CAP
1 *1743:A2 7.51865e-05
2 *1742:X 7.51865e-05
3 *1743:A2 *1949:CLK 5.52302e-05
4 *1743:A2 *267:71 0.000148189
5 *1743:A2 *410:43 2.89114e-05
6 *163:20 *1743:A2 7.50601e-05
*RES
1 *1742:X *1743:A2 30.0821 
*END

*D_NET *257 0.000524276
*CONN
*I *1747:A2 I *D sky130_fd_sc_hd__a22o_1
*I *1743:X O *D sky130_fd_sc_hd__o21a_1
*CAP
1 *1747:A2 6.78548e-05
2 *1743:X 6.78548e-05
3 *1747:A2 *260:16 5.33005e-05
4 *1747:A2 *267:71 0.000150618
5 *1747:A2 *417:12 5.33005e-05
6 *29:18 *1747:A2 0.000131347
*RES
1 *1743:X *1747:A2 30.0821 
*END

*D_NET *258 0.00191158
*CONN
*I *1746:A0 I *D sky130_fd_sc_hd__mux2_1
*I *1744:X O *D sky130_fd_sc_hd__mux4_1
*CAP
1 *1746:A0 0.000593072
2 *1744:X 0.000593072
3 *1746:A0 *1744:A3 0.000232188
4 *1746:A0 *1746:A1 0.000270236
5 *1746:A0 *272:84 0.0001399
6 *1746:A0 *277:18 9.25014e-06
7 *2047:D *1746:A0 7.38652e-05
*RES
1 *1744:X *1746:A0 37.35 
*END

*D_NET *259 0.00283319
*CONN
*I *1746:A1 I *D sky130_fd_sc_hd__mux2_1
*I *1745:X O *D sky130_fd_sc_hd__mux4_1
*CAP
1 *1746:A1 0.000672034
2 *1745:X 0.000672034
3 *1746:A1 *1744:S0 0.000714097
4 *1746:A1 *1745:S1 2.89016e-05
5 *1746:A1 *1872:A1 0
6 *1746:A1 *269:77 2.51343e-06
7 *1746:A1 *272:84 0
8 *1746:A1 *277:18 0.000363805
9 *1746:A1 *407:285 3.2924e-05
10 *1746:A1 *408:239 7.6644e-05
11 *1746:A1 *431:23 0
12 *1644:B1 *1746:A1 0
13 *1746:A0 *1746:A1 0.000270236
14 *1971:D *1746:A1 0
*RES
1 *1745:X *1746:A1 43.3679 
*END

*D_NET *260 0.00669963
*CONN
*I *1747:B1 I *D sky130_fd_sc_hd__a22o_1
*I *1746:X O *D sky130_fd_sc_hd__mux2_1
*CAP
1 *1747:B1 0
2 *1746:X 3.79418e-05
3 *260:16 0.001683
4 *260:8 0.00172094
5 *260:8 *1746:S 3.18676e-05
6 *260:16 *1781:A0 7.6644e-05
7 *260:16 *1795:A0 0.000133319
8 *260:16 *1917:CLK 0.0011129
9 *260:16 *262:77 0.000101545
10 *260:16 *265:34 0
11 *260:16 *267:56 0
12 *260:16 *267:71 0
13 *260:16 *314:12 0.000382573
14 *260:16 *417:12 0.000106943
15 *260:16 *422:26 0
16 *260:16 *422:43 0
17 *260:16 *424:25 0.000165262
18 *260:16 *424:29 0.000386703
19 *1644:B1 *260:16 0
20 *1747:A2 *260:16 5.33005e-05
21 *1894:D *260:16 0
22 *1915:D *260:16 0.000130556
23 *29:18 *260:16 0.000469572
24 *163:36 *260:16 0.000106552
*RES
1 *1746:X *260:8 14.3357 
2 *260:8 *260:16 48.0179 
3 *260:16 *1747:B1 9.3 
*END

*D_NET *261 0.00446866
*CONN
*I *1749:C I *D sky130_fd_sc_hd__nand4b_4
*I *1813:D I *D sky130_fd_sc_hd__and4bb_4
*I *1785:D I *D sky130_fd_sc_hd__nand4_4
*I *1794:D I *D sky130_fd_sc_hd__and4b_4
*I *1748:Y O *D sky130_fd_sc_hd__nor2_2
*CAP
1 *1749:C 2.23854e-05
2 *1813:D 0.000217238
3 *1785:D 0
4 *1794:D 0.000141533
5 *1748:Y 0.00054146
6 *261:16 0.000141533
7 *261:14 0.000428441
8 *261:8 0.000775048
9 *1794:D *1794:B 0.000262498
10 *1794:D *1794:C 2.14757e-05
11 *1794:D *295:8 7.29448e-05
12 *1794:D *447:20 5.75147e-05
13 *1813:D *1758:B 1.98839e-05
14 *1813:D *1758:C 0.000137983
15 *1813:D *408:90 0.000173804
16 *1813:D *411:111 0.000255338
17 *1813:D *411:126 5.80706e-06
18 *1813:D *450:131 2.8266e-06
19 *1813:D *450:140 1.37292e-05
20 *1813:D *450:196 4.47162e-05
21 *261:8 *1709:A 5.52238e-05
22 *261:8 *1709:B 4.88546e-05
23 *261:8 *1749:A_N 5.33005e-05
24 *261:8 *1749:B 5.52302e-05
25 *261:8 *262:6 1.15281e-05
26 *261:8 *262:67 5.48151e-05
27 *261:8 *409:94 4.8794e-05
28 *261:8 *412:106 9.41642e-05
29 *261:8 *413:80 5.30637e-06
30 *261:14 *262:67 3.4879e-05
31 *261:14 *411:111 0.000185661
32 *261:14 *450:131 5.44074e-05
33 *261:14 *451:115 0.000196269
34 *1758:D *1813:D 0.000178847
35 *230:14 *261:8 5.52238e-05
*RES
1 *1748:Y *261:8 18.4786 
2 *261:8 *261:14 10.125 
3 *261:14 *261:16 4.5 
4 *261:16 *1794:D 13.175 
5 *261:16 *1785:D 9.3 
6 *261:14 *1813:D 20.675 
7 *261:8 *1749:C 9.72857 
*END

*D_NET *262 0.0373425
*CONN
*I *1750:S I *D sky130_fd_sc_hd__mux2_1
*I *1757:S I *D sky130_fd_sc_hd__mux2_1
*I *1754:S I *D sky130_fd_sc_hd__mux2_1
*I *1752:S I *D sky130_fd_sc_hd__mux2_1
*I *1755:S I *D sky130_fd_sc_hd__mux2_1
*I *1751:S I *D sky130_fd_sc_hd__mux2_1
*I *1756:S I *D sky130_fd_sc_hd__mux2_1
*I *1753:S I *D sky130_fd_sc_hd__mux2_1
*I *1749:Y O *D sky130_fd_sc_hd__nand4b_4
*CAP
1 *1750:S 2.23854e-05
2 *1757:S 0.000618303
3 *1754:S 0.000127184
4 *1752:S 0.000226551
5 *1755:S 0.000227272
6 *1751:S 0
7 *1756:S 0.000892581
8 *1753:S 0
9 *1749:Y 3.99695e-05
10 *262:115 0.00173456
11 *262:92 0.001797
12 *262:81 0.000923785
13 *262:77 0.00333463
14 *262:67 0.0037405
15 *262:36 0.00236163
16 *262:28 0.00670342
17 *262:6 0.00577297
18 *1752:S *453:131 0.000486752
19 *1752:S *453:133 4.73286e-05
20 *1754:S *1818:A0 0.000313647
21 *1754:S *455:169 2.28499e-05
22 *1755:S *1755:A0 4.58976e-05
23 *1755:S *1755:A1 9.83388e-05
24 *1756:S *1753:A0 9.90431e-05
25 *1756:S *1753:A1 0.000443654
26 *1756:S *1756:A1 3.67142e-05
27 *1756:S *1789:A1 6.4443e-05
28 *1756:S *1820:S 0.000267037
29 *1756:S *402:10 3.67142e-05
30 *1757:S *1653:S0 0.00071967
31 *1757:S *1968:CLK 0
32 *1757:S *436:36 9.83388e-05
33 *262:28 *1938:CLK 0.000101444
34 *262:28 *2126:A 2.22043e-05
35 *262:28 *264:8 0.000115473
36 *262:28 *266:19 0.000212568
37 *262:28 *407:234 0.000135986
38 *262:28 *408:49 0.000179254
39 *262:28 *408:117 1.21955e-05
40 *262:28 *409:52 0.000101444
41 *262:28 *409:63 0.00015724
42 *262:28 *452:16 0.000182839
43 *262:28 *452:32 0.00027878
44 *262:36 *1820:S 0.00049041
45 *262:36 *1919:CLK 4.87953e-05
46 *262:36 *2126:A 0.000752267
47 *262:67 *1749:B 2.89114e-05
48 *262:77 *1746:S 0.000105163
49 *262:77 *1875:A0 0.000257749
50 *262:77 *1875:S 0.000126639
51 *262:92 *1637:S1 0
52 *262:92 *433:10 0.000559185
53 *262:92 *433:14 0.000146071
54 *262:115 *1631:A2 0.000152958
55 *262:115 *1631:A3 5.83304e-05
56 *262:115 *1631:S1 2.46911e-05
57 *262:115 *1637:S1 6.87691e-05
58 *262:115 *1653:S0 0.00012401
59 *262:115 *1818:A0 0
60 *262:115 *1982:CLK 0
61 *262:115 *407:89 0.000591664
62 *262:115 *433:10 9.11048e-06
63 *262:115 *433:76 0.000182729
64 *262:115 *433:122 0.000127155
65 *1644:B1 *262:77 0
66 *1896:D *262:115 0.000149094
67 *1897:D *1756:S 0
68 *1982:D *1754:S 7.38537e-05
69 *1982:D *262:115 0.000102002
70 *2066:D *262:77 4.88429e-05
71 *34:14 *262:36 0.00010873
72 *260:16 *262:77 0.000101545
73 *261:8 *262:6 1.15281e-05
74 *261:8 *262:67 5.48151e-05
75 *261:14 *262:67 3.4879e-05
*RES
1 *1749:Y *262:6 9.83571 
2 *262:6 *262:28 32.0358 
3 *262:28 *262:36 22.6607 
4 *262:36 *1753:S 9.3 
5 *262:36 *1756:S 36.7286 
6 *262:28 *1751:S 9.3 
7 *262:6 *262:67 7.94643 
8 *262:67 *262:77 49.6071 
9 *262:77 *262:81 2.08929 
10 *262:81 *1755:S 13.1214 
11 *262:81 *262:92 16.4643 
12 *262:92 *1752:S 19.2643 
13 *262:92 *262:115 23.1786 
14 *262:115 *1754:S 17.2107 
15 *262:115 *1757:S 27.3179 
16 *262:67 *1750:S 9.72857 
*END

*D_NET *263 0.0213521
*CONN
*I *1760:S I *D sky130_fd_sc_hd__mux2_1
*I *1762:S I *D sky130_fd_sc_hd__mux2_1
*I *1759:S I *D sky130_fd_sc_hd__mux2_1
*I *1763:S I *D sky130_fd_sc_hd__mux2_1
*I *1764:S I *D sky130_fd_sc_hd__mux2_1
*I *1765:S I *D sky130_fd_sc_hd__mux2_1
*I *1766:S I *D sky130_fd_sc_hd__mux2_1
*I *1761:S I *D sky130_fd_sc_hd__mux2_1
*I *1758:X O *D sky130_fd_sc_hd__and4b_4
*CAP
1 *1760:S 0
2 *1762:S 0.00133798
3 *1759:S 0
4 *1763:S 0.000260703
5 *1764:S 0
6 *1765:S 0.000155977
7 *1766:S 0
8 *1761:S 6.62319e-05
9 *1758:X 5.32576e-05
10 *263:110 0.00188089
11 *263:95 0.00128474
12 *263:55 0.000739983
13 *263:44 0.00109845
14 *263:36 0.000548209
15 *263:32 0.00157809
16 *263:6 0.00201248
17 *1761:S *1761:A0 0.000314139
18 *1761:S *267:30 0.000166407
19 *1762:S *1774:S 0.000126932
20 *1762:S *1796:A1 0.000402346
21 *1762:S *1949:CLK 0.000397924
22 *1762:S *409:133 0.000269422
23 *1762:S *410:49 0.000311585
24 *1762:S *425:12 0
25 *1762:S *425:75 0
26 *1763:S *454:28 0.000734132
27 *1763:S *455:102 0.000135742
28 *1763:S *455:104 0.000206042
29 *1763:S *455:145 9.44566e-05
30 *1765:S *1655:S0 0
31 *1765:S *1765:A1 5.52302e-05
32 *1765:S *455:160 2.44318e-05
33 *263:6 *411:126 1.92905e-05
34 *263:6 *447:12 6.87574e-05
35 *263:32 *1639:A2 2.90075e-05
36 *263:32 *1639:S0 0.000380737
37 *263:32 *1962:CLK 1.81774e-05
38 *263:32 *267:14 0.00012733
39 *263:32 *267:30 0.000311698
40 *263:32 *422:26 7.83659e-05
41 *263:32 *447:12 7.43578e-06
42 *263:36 *1639:A2 7.6682e-05
43 *263:36 *267:30 0.000265447
44 *263:44 *1639:A2 1.24368e-05
45 *263:44 *1761:A0 8.57023e-05
46 *263:44 *1764:A0 0.000137983
47 *263:44 *267:30 0.000457753
48 *263:44 *434:23 0.000186662
49 *263:44 *456:108 0.000898959
50 *263:55 *1655:S0 0
51 *263:55 *1761:A0 0.000167266
52 *263:55 *1775:A1 0.00021188
53 *263:55 *1779:A0 9.54907e-05
54 *263:55 *318:10 7.4826e-05
55 *263:55 *436:69 0
56 *263:95 *1716:A0 0
57 *263:95 *1759:A1 0
58 *263:95 *1794:A_N 2.6726e-05
59 *263:95 *1814:A0 0
60 *263:95 *267:14 3.06466e-05
61 *263:95 *267:56 0
62 *263:95 *267:71 0
63 *263:95 *422:18 0.000366675
64 *263:95 *451:158 0
65 *263:95 *451:169 0
66 *263:110 *1724:A1 0
67 *263:110 *1724:A2 1.74352e-05
68 *263:110 *1759:A1 0
69 *263:110 *1780:A1 3.34366e-05
70 *263:110 *1796:A1 0
71 *263:110 *320:6 5.76121e-05
72 *263:110 *407:51 0.000227526
73 *263:110 *416:138 4.75521e-05
74 *263:110 *452:150 5.52302e-05
75 *1636:A1 *263:95 4.79842e-05
76 *1636:A1 *263:110 6.16864e-05
77 *1640:A2 *263:32 9.90367e-05
78 *1731:B2 *1762:S 4.87854e-05
79 *1739:A1 *263:55 0
80 *1879:S *263:55 0.000936441
81 *1883:S *1765:S 0.000139653
82 *1883:S *263:55 0.000609054
83 *1940:D *263:44 0.000222971
84 *1943:D *1763:S 0.000100831
85 *1962:D *263:32 4.47206e-05
86 *1978:D *263:95 0
87 *2052:D *263:95 3.57163e-05
88 *2053:D *1762:S 6.09746e-05
89 *2053:D *263:110 0
90 *163:16 *1762:S 4.43256e-05
91 *163:16 *263:110 0
92 *163:22 *263:95 0
93 *163:22 *263:110 0
94 *163:36 *263:95 0
95 *164:8 *1762:S 6.94388e-05
*RES
1 *1758:X *263:6 10.6571 
2 *263:6 *263:32 28.8214 
3 *263:32 *263:36 3.01786 
4 *263:36 *263:44 15.0714 
5 *263:44 *1761:S 12.3 
6 *263:44 *263:55 24.0536 
7 *263:55 *1766:S 13.8 
8 *263:55 *1765:S 17.1214 
9 *263:36 *1764:S 9.3 
10 *263:32 *1763:S 27.8357 
11 *263:6 *263:95 19.1964 
12 *263:95 *1759:S 13.8 
13 *263:95 *263:110 15.3393 
14 *263:110 *1762:S 42.3714 
15 *263:110 *1760:S 9.3 
*END

*D_NET *264 0.0229948
*CONN
*I *1769:S I *D sky130_fd_sc_hd__mux2_1
*I *1768:S I *D sky130_fd_sc_hd__mux2_1
*I *1774:S I *D sky130_fd_sc_hd__mux2_1
*I *1771:S I *D sky130_fd_sc_hd__mux2_1
*I *1772:S I *D sky130_fd_sc_hd__mux2_1
*I *1773:S I *D sky130_fd_sc_hd__mux2_1
*I *1775:S I *D sky130_fd_sc_hd__mux2_1
*I *1770:S I *D sky130_fd_sc_hd__mux2_1
*I *1767:Y O *D sky130_fd_sc_hd__nand4b_4
*CAP
1 *1769:S 0.000413265
2 *1768:S 0.000261366
3 *1774:S 0.00126674
4 *1771:S 0
5 *1772:S 2.10625e-05
6 *1773:S 0
7 *1775:S 0.000258833
8 *1770:S 0.000393693
9 *1767:Y 0.000356682
10 *264:102 0.000787801
11 *264:68 0.00186734
12 *264:30 0.00135104
13 *264:26 0.00102975
14 *264:20 0.000558004
15 *264:16 0.00233268
16 *264:8 0.00199622
17 *1768:S *1718:A0 0.000260574
18 *1768:S *1768:A1 5.07108e-05
19 *1769:S *1719:B1 0
20 *1769:S *1769:A0 5.52238e-05
21 *1769:S *311:12 0.000101545
22 *1769:S *407:12 0.000136951
23 *1769:S *408:80 0.000392997
24 *1769:S *452:32 0.000167833
25 *1770:S *1734:A2 0.000173804
26 *1770:S *2057:CLK 0
27 *1770:S *408:402 7.79781e-06
28 *1770:S *434:12 0.000369097
29 *1770:S *434:23 0
30 *1770:S *436:77 0.000153078
31 *1772:S *1772:A1 1.76135e-05
32 *1772:S *410:57 5.90443e-06
33 *1774:S *1742:A3 0.000155177
34 *1774:S *1771:A1 1.03403e-05
35 *1774:S *1783:A1 5.23057e-05
36 *1774:S *407:51 0.000224669
37 *1774:S *407:167 2.08721e-05
38 *1774:S *410:49 0.000529363
39 *1774:S *424:65 4.52937e-05
40 *1775:S *1733:A 2.14658e-05
41 *1775:S *1775:A1 5.71472e-05
42 *1775:S *408:402 0.000128562
43 *1775:S *436:69 2.56694e-05
44 *1775:S *436:77 0.000102883
45 *264:8 *1719:B1 0
46 *264:8 *409:63 0.000985535
47 *264:8 *452:32 4.66203e-05
48 *264:16 *2076:A 0.000424937
49 *264:16 *422:12 0.000155087
50 *264:20 *1772:A1 9.71197e-05
51 *264:20 *1781:A1 0.00014285
52 *264:20 *455:117 0.000139913
53 *264:26 *410:57 4.62632e-05
54 *264:26 *454:28 0
55 *264:30 *1773:A0 0.000255068
56 *264:30 *408:431 1.21258e-05
57 *264:30 *434:12 9.71197e-05
58 *264:30 *434:50 0.000356028
59 *264:30 *434:59 9.60875e-05
60 *264:68 *1771:A1 3.72204e-05
61 *264:68 *1780:A1 3.67364e-05
62 *264:68 *1917:CLK 0
63 *264:68 *424:14 9.59321e-05
64 *264:68 *424:50 2.7814e-05
65 *264:102 *311:12 5.58941e-05
66 *264:102 *452:32 0.000151968
67 *1636:B1 *1772:S 2.84494e-05
68 *1636:B1 *264:26 0.000165985
69 *1723:A1 *264:8 8.15843e-05
70 *1762:S *1774:S 0.000126932
71 *1916:D *1774:S 4.70697e-05
72 *1916:D *264:68 3.56226e-05
73 *1930:D *264:16 0.000144186
74 *1938:D *1769:S 6.8646e-06
75 *1942:D *264:20 1.40415e-05
76 *1946:D *264:16 0.000185057
77 *1946:D *264:102 0.000111581
78 *1950:D *264:68 3.25247e-05
79 *164:34 *1774:S 0.00069576
80 *164:73 *264:68 0.00103602
81 *231:24 *1768:S 2.28598e-05
82 *239:12 *264:8 0.000723113
83 *246:10 *264:8 0
84 *262:28 *264:8 0.000115473
*RES
1 *1767:Y *264:8 27.5857 
2 *264:8 *264:16 23.6607 
3 *264:16 *264:20 8.73214 
4 *264:20 *264:26 11.0536 
5 *264:26 *264:30 17.7679 
6 *264:30 *1770:S 23.6393 
7 *264:30 *1775:S 19.7286 
8 *264:26 *1773:S 9.3 
9 *264:20 *1772:S 14.5321 
10 *264:16 *264:68 19.8036 
11 *264:68 *1771:S 13.8 
12 *264:68 *1774:S 37.0143 
13 *264:8 *264:102 3.76786 
14 *264:102 *1768:S 18.6036 
15 *264:102 *1769:S 24.3893 
*END

*D_NET *265 0.0231999
*CONN
*I *1780:S I *D sky130_fd_sc_hd__mux2_1
*I *1778:S I *D sky130_fd_sc_hd__mux2_1
*I *1777:S I *D sky130_fd_sc_hd__mux2_1
*I *1782:S I *D sky130_fd_sc_hd__mux2_1
*I *1783:S I *D sky130_fd_sc_hd__mux2_1
*I *1784:S I *D sky130_fd_sc_hd__mux2_1
*I *1779:S I *D sky130_fd_sc_hd__mux2_1
*I *1781:S I *D sky130_fd_sc_hd__mux2_1
*I *1776:X O *D sky130_fd_sc_hd__and4bb_4
*CAP
1 *1780:S 0.00146456
2 *1778:S 8.75961e-05
3 *1777:S 0
4 *1782:S 0
5 *1783:S 0.000539975
6 *1784:S 0
7 *1779:S 0.000765285
8 *1781:S 0.000150305
9 *1776:X 0
10 *265:110 0.00206021
11 *265:101 0.00132021
12 *265:57 0.000869702
13 *265:55 0.0015083
14 *265:34 0.00164425
15 *265:26 0.00239163
16 *265:4 0.00257374
17 *1778:S *1724:A0 2.44318e-05
18 *1778:S *1778:A1 9.60939e-05
19 *1778:S *304:12 2.14658e-05
20 *1779:S *1779:A1 1.97695e-05
21 *1779:S *1784:A0 0.000246064
22 *1779:S *1784:A1 4.87953e-05
23 *1780:S *1780:A1 1.28585e-05
24 *1781:S *1781:A1 0.000359621
25 *1783:S *1648:B1 6.20855e-06
26 *1783:S *409:166 0.000109809
27 *1783:S *421:78 2.12687e-05
28 *1783:S *455:160 0
29 *265:26 *1767:A_N 1.39726e-05
30 *265:26 *1767:B 2.0307e-05
31 *265:26 *1782:A0 0
32 *265:26 *1785:A 5.33005e-05
33 *265:26 *1786:A1 7.6644e-05
34 *265:26 *1786:S 6.42095e-05
35 *265:26 *1951:CLK 7.77751e-05
36 *265:26 *1954:CLK 1.88435e-05
37 *265:26 *295:8 0.000437749
38 *265:26 *416:180 2.73493e-05
39 *265:26 *451:115 0.000306317
40 *265:26 *451:141 7.83587e-05
41 *265:34 *1629:S1 2.72545e-05
42 *265:34 *1640:B1 0.000222885
43 *265:34 *1781:A1 0.000388132
44 *265:34 *1917:CLK 0
45 *265:34 *1962:CLK 2.04825e-05
46 *265:34 *422:26 5.15901e-05
47 *265:34 *422:43 4.09375e-05
48 *265:55 *1881:A0 5.03772e-05
49 *265:55 *315:10 0.000181796
50 *265:101 *1714:A 0
51 *265:101 *1768:A0 0.000153047
52 *265:101 *1776:C 6.19181e-05
53 *265:101 *1777:A0 2.26424e-05
54 *265:101 *1785:A 0.000140933
55 *265:101 *303:10 7.2754e-05
56 *1630:B *1781:S 2.28598e-05
57 *1636:B1 *265:34 0
58 *1636:B1 *265:55 0
59 *1644:A2 *265:34 9.02418e-05
60 *1644:B1 *265:34 0.000405549
61 *1644:B2 *265:34 3.43988e-06
62 *1646:A *1783:S 0.000161845
63 *1652:B1 *1779:S 0
64 *1660:A2 *1783:S 0.000341788
65 *1660:B1 *1779:S 0.000196526
66 *1660:B1 *1783:S 0
67 *1715:B *265:101 0
68 *1719:A1 *265:101 0
69 *1719:A1 *265:110 0
70 *1725:B *265:110 0
71 *1739:A1 *1779:S 2.32625e-05
72 *1739:B2 *1779:S 0.00020054
73 *1767:C *265:26 1.58163e-05
74 *1776:D *265:26 5.33005e-05
75 *1776:D *265:101 0.000130419
76 *1942:D *265:34 0.000338344
77 *1942:D *265:55 0.00012401
78 *1947:D *265:110 5.26184e-05
79 *1953:D *1779:S 0.000103343
80 *1954:D *265:26 0.00020563
81 *1962:D *265:34 2.17819e-05
82 *2055:D *1783:S 0
83 *164:34 *1783:S 0
84 *164:73 *265:34 0.000149662
85 *164:86 *265:34 7.20085e-05
86 *190:12 *1779:S 6.73361e-05
87 *230:25 *265:26 0.000146474
88 *230:36 *265:26 3.34366e-05
89 *231:12 *265:101 0
90 *231:45 *1781:S 0.00042349
91 *246:10 *265:26 0.000168939
92 *246:10 *265:101 0.000355443
93 *246:10 *265:110 0.000340093
94 *260:16 *265:34 0
*RES
1 *1776:X *265:4 9.3 
2 *265:4 *265:26 43.875 
3 *265:26 *265:34 22.5893 
4 *265:34 *1781:S 18.8536 
5 *265:34 *265:55 18.3393 
6 *265:55 *265:57 1.76786 
7 *265:57 *1779:S 33.8357 
8 *265:57 *1784:S 9.3 
9 *265:55 *1783:S 30.8714 
10 *265:26 *1782:S 9.3 
11 *265:4 *265:101 22.6786 
12 *265:101 *1777:S 13.8 
13 *265:101 *265:110 11.9643 
14 *265:110 *1778:S 15.5679 
15 *265:110 *1780:S 23.322 
*END

*D_NET *266 0.0261452
*CONN
*I *1787:S I *D sky130_fd_sc_hd__mux2_1
*I *1789:S I *D sky130_fd_sc_hd__mux2_1
*I *1792:S I *D sky130_fd_sc_hd__mux2_1
*I *1793:S I *D sky130_fd_sc_hd__mux2_1
*I *1790:S I *D sky130_fd_sc_hd__mux2_1
*I *1788:S I *D sky130_fd_sc_hd__mux2_1
*I *1791:S I *D sky130_fd_sc_hd__mux2_1
*I *1786:S I *D sky130_fd_sc_hd__mux2_1
*I *1785:Y O *D sky130_fd_sc_hd__nand4_4
*CAP
1 *1787:S 0.00010557
2 *1789:S 2.80151e-05
3 *1792:S 0
4 *1793:S 0
5 *1790:S 0
6 *1788:S 5.49173e-05
7 *1791:S 0.000646823
8 *1786:S 0.000183934
9 *1785:Y 0
10 *266:73 0.000969328
11 *266:71 0.000863984
12 *266:65 0.00159679
13 *266:53 0.00215089
14 *266:35 0.00333965
15 *266:19 0.003437
16 *266:6 0.00135422
17 *1786:S *1767:A_N 0.000313003
18 *1786:S *1786:A1 5.52238e-05
19 *1786:S *416:92 3.14078e-05
20 *1786:S *416:180 5.38242e-05
21 *1786:S *450:131 0.00017309
22 *1786:S *451:115 0.000306317
23 *1787:S *1740:S1 2.41649e-05
24 *1787:S *1787:A0 5.33005e-05
25 *1787:S *1815:A1 4.27935e-05
26 *1787:S *1815:S 0.000227273
27 *1787:S *296:6 2.43875e-05
28 *1788:S *1788:A0 3.69047e-06
29 *1788:S *1788:A1 1.92789e-05
30 *1789:S *1647:S0 3.76337e-05
31 *1791:S *1637:S0 0
32 *1791:S *1788:A0 0.000115789
33 *1791:S *1788:A1 6.16744e-05
34 *1791:S *1791:A0 0.000451463
35 *1791:S *1791:A1 2.44318e-05
36 *1791:S *1797:A0 0.000270229
37 *1791:S *1797:S 8.16036e-05
38 *1791:S *297:8 9.1469e-05
39 *1791:S *456:134 5.71472e-05
40 *266:19 *1718:A3 5.83233e-05
41 *266:19 *1726:S0 0.000168055
42 *266:19 *1759:A0 3.88819e-05
43 *266:19 *1767:A_N 1.02504e-05
44 *266:19 *1815:S 7.05143e-06
45 *266:19 *1938:CLK 0.000380604
46 *266:19 *270:91 0.000268665
47 *266:19 *319:8 7.38652e-05
48 *266:19 *407:18 0.00027025
49 *266:19 *407:248 0.000639331
50 *266:19 *408:45 0
51 *266:19 *408:49 0
52 *266:19 *408:90 9.87791e-05
53 *266:19 *408:117 6.47816e-05
54 *266:19 *409:38 6.98669e-05
55 *266:19 *409:52 0.00115796
56 *266:19 *422:8 0.000148182
57 *266:19 *425:44 1.0945e-05
58 *266:19 *450:131 2.48938e-05
59 *266:19 *450:140 5.58941e-05
60 *266:19 *450:196 0.000334854
61 *266:35 *1647:S0 0.000149105
62 *266:35 *1726:A2 0.000407779
63 *266:35 *1740:A2 1.00442e-05
64 *266:35 *1740:A3 5.33433e-05
65 *266:35 *1740:S0 2.59355e-05
66 *266:35 *1740:S1 4.87854e-05
67 *266:35 *1815:S 2.26327e-05
68 *266:35 *1916:CLK 6.62868e-05
69 *266:35 *2123:A 0.00010096
70 *266:35 *408:30 2.47093e-05
71 *266:35 *408:45 2.19778e-05
72 *266:53 *1647:A1 0.000106517
73 *266:53 *1647:S0 0.000248016
74 *266:53 *1654:A 0.000142856
75 *266:53 *1792:A1 2.59355e-05
76 *266:53 *1820:A0 4.49293e-05
77 *266:53 *397:10 0.000146474
78 *266:53 *421:10 0
79 *266:65 *1645:A3 7.65689e-05
80 *266:65 *1647:S1 0
81 *266:65 *1792:A1 3.34366e-05
82 *266:65 *1944:CLK 0.000391583
83 *266:65 *2073:A 0.000312262
84 *266:65 *420:6 0.000397291
85 *266:71 *1754:A1 0
86 *266:71 *1790:A1 0.000164706
87 *266:71 *1818:A0 0
88 *266:71 *299:10 0.000104236
89 *266:71 *395:10 0
90 *266:71 *420:57 0
91 *266:71 *436:10 0
92 *266:71 *455:175 3.79104e-05
93 *266:73 *1790:A0 1.00375e-05
94 *266:73 *1790:A1 5.80706e-06
95 *1646:B *266:65 1.24368e-05
96 *1648:A2 *266:53 0.000144773
97 *1878:S *266:19 0.000437227
98 *1883:S *266:65 8.47011e-05
99 *1898:D *266:71 8.16036e-05
100 *1916:D *266:35 3.15318e-05
101 *1918:D *266:19 0.000160214
102 *1918:D *266:35 0.000140304
103 *1957:D *266:53 5.71472e-05
104 *1984:D *266:53 8.6432e-05
105 *2058:D *266:65 0.000320205
106 *262:28 *266:19 0.000212568
107 *265:26 *1786:S 6.42095e-05
*RES
1 *1785:Y *266:6 13.8 
2 *266:6 *1786:S 20.2821 
3 *266:6 *266:19 38.8304 
4 *266:19 *266:35 35.2411 
5 *266:35 *266:53 30.4286 
6 *266:53 *266:65 32.2857 
7 *266:65 *266:71 17 
8 *266:71 *266:73 4.98214 
9 *266:73 *1791:S 29.7643 
10 *266:73 *1788:S 14.7464 
11 *266:71 *1790:S 13.8 
12 *266:65 *1793:S 9.3 
13 *266:53 *1792:S 9.3 
14 *266:35 *1789:S 10.2643 
15 *266:19 *1787:S 16.7911 
*END

*D_NET *267 0.026491
*CONN
*I *1796:S I *D sky130_fd_sc_hd__mux2_1
*I *1798:S I *D sky130_fd_sc_hd__mux2_1
*I *1801:S I *D sky130_fd_sc_hd__mux2_1
*I *1802:S I *D sky130_fd_sc_hd__mux2_1
*I *1799:S I *D sky130_fd_sc_hd__mux2_1
*I *1795:S I *D sky130_fd_sc_hd__mux2_1
*I *1797:S I *D sky130_fd_sc_hd__mux2_1
*I *1800:S I *D sky130_fd_sc_hd__mux2_1
*I *1794:X O *D sky130_fd_sc_hd__and4b_4
*CAP
1 *1796:S 0.000305374
2 *1798:S 0
3 *1801:S 2.23854e-05
4 *1802:S 2.23854e-05
5 *1799:S 0.00121094
6 *1795:S 0
7 *1797:S 8.32754e-05
8 *1800:S 7.69048e-05
9 *1794:X 0.000470487
10 *267:89 0.00213433
11 *267:87 0.00228908
12 *267:73 0.00196451
13 *267:71 0.00204306
14 *267:56 0.00127413
15 *267:32 0.000667858
16 *267:30 0.00288271
17 *267:14 0.00298078
18 *1796:S *1796:A0 0.000142856
19 *1796:S *409:148 0.00023978
20 *1797:S *1637:S0 0
21 *1799:S *1802:A0 5.33433e-05
22 *1799:S *1966:CLK 0
23 *1799:S *1969:CLK 0.000179656
24 *1799:S *420:22 0
25 *1799:S *420:35 0
26 *1799:S *420:57 0
27 *1799:S *420:59 0
28 *1800:S *456:134 5.62995e-05
29 *267:14 *1716:A1 7.83366e-05
30 *267:14 *1794:A_N 8.8487e-05
31 *267:14 *1795:A0 0
32 *267:14 *295:8 8.43535e-06
33 *267:30 *1639:A1 2.59355e-05
34 *267:30 *1761:A0 4.70078e-05
35 *267:30 *1773:A1 5.66157e-05
36 *267:30 *316:6 7.77751e-05
37 *267:30 *434:23 9.92409e-05
38 *267:30 *454:28 6.42242e-05
39 *267:30 *456:108 2.24763e-05
40 *267:32 *1819:S 0.000267698
41 *267:32 *456:108 2.571e-05
42 *267:32 *456:134 0.000400393
43 *267:56 *1795:A0 4.09856e-05
44 *267:71 *407:51 8.12662e-05
45 *267:73 *1798:A1 0.00013071
46 *267:73 *409:148 0.00027949
47 *267:73 *409:154 0.000212611
48 *267:73 *409:255 0.000443648
49 *267:87 *1798:A0 0.000129727
50 *267:87 *1798:A1 2.27416e-05
51 *267:87 *1801:A0 6.53244e-05
52 *267:87 *407:167 0
53 *267:87 *409:255 5.52302e-05
54 *267:87 *421:14 3.44348e-05
55 *267:87 *421:18 9.5725e-05
56 *267:87 *421:22 9.41706e-05
57 *267:89 *1801:A0 2.55587e-05
58 *267:89 *1802:A0 5.33334e-05
59 *1644:A1 *267:30 0.000238706
60 *1743:A2 *267:71 0.000148189
61 *1747:A1 *267:71 0.000121573
62 *1747:A2 *267:71 0.000150618
63 *1747:B2 *267:71 0
64 *1761:S *267:30 0.000166407
65 *1791:S *1797:S 8.16036e-05
66 *1917:D *267:30 0.000178025
67 *1932:D *267:32 5.71472e-05
68 *1949:D *267:71 0.000196269
69 *1954:D *267:14 5.52238e-05
70 *1962:D *267:30 0.000178847
71 *1965:D *267:87 0.000102863
72 *1968:D *267:89 1.40306e-05
73 *1969:D *1799:S 0
74 *1984:D *267:87 0.000153333
75 *2105:A *1799:S 0.000140263
76 *29:18 *267:71 0.000561942
77 *163:20 *267:71 8.68952e-05
78 *163:22 *267:71 0.000264031
79 *163:36 *267:56 2.8266e-06
80 *163:36 *267:71 0.000271874
81 *260:16 *267:56 0
82 *260:16 *267:71 0
83 *263:32 *267:14 0.00012733
84 *263:32 *267:30 0.000311698
85 *263:36 *267:30 0.000265447
86 *263:44 *267:30 0.000457753
87 *263:95 *267:14 3.06466e-05
88 *263:95 *267:56 0
89 *263:95 *267:71 0
*RES
1 *1794:X *267:14 27.3357 
2 *267:14 *267:30 45.9643 
3 *267:30 *267:32 10.3929 
4 *267:32 *1800:S 10.675 
5 *267:32 *1797:S 20.2464 
6 *267:14 *267:56 7.05357 
7 *267:56 *1795:S 13.8 
8 *267:56 *267:71 34.4286 
9 *267:71 *267:73 14.5 
10 *267:73 *267:87 29.1071 
11 *267:87 *267:89 14.0893 
12 *267:89 *1799:S 40.6929 
13 *267:89 *1802:S 9.72857 
14 *267:87 *1801:S 9.72857 
15 *267:73 *1798:S 9.3 
16 *267:71 *1796:S 15.9964 
*END

*D_NET *268 0.0044866
*CONN
*I *1804:D I *D sky130_fd_sc_hd__nand4_4
*I *1841:D I *D sky130_fd_sc_hd__and4b_4
*I *1832:C I *D sky130_fd_sc_hd__nand4b_4
*I *1859:D I *D sky130_fd_sc_hd__and4bb_4
*I *1803:X O *D sky130_fd_sc_hd__and2_2
*CAP
1 *1804:D 0
2 *1841:D 0.000440384
3 *1832:C 0
4 *1859:D 0
5 *1803:X 0.000418911
6 *268:38 0.000533022
7 *268:27 0.000284816
8 *268:12 0.000611089
9 *1841:D *1841:B 6.57032e-05
10 *1841:D *275:111 0.000348213
11 *1841:D *408:117 7.60306e-05
12 *1841:D *451:115 0.000150632
13 *1841:D *452:32 3.92854e-05
14 *268:12 *1885:B 9.3111e-05
15 *268:12 *1885:C 0.000312215
16 *268:12 *1885:D 1.21289e-05
17 *268:12 *408:117 0.00012401
18 *268:12 *450:18 3.34295e-05
19 *268:12 *450:96 0.000103267
20 *268:27 *1832:A_N 9.60939e-05
21 *268:27 *276:16 0.000237811
22 *268:27 *408:117 1.17968e-05
23 *268:27 *450:14 0.000137983
24 *268:27 *452:32 0.000126481
25 *268:38 *1832:A_N 5.52238e-05
26 *268:38 *452:32 8.66324e-05
27 *239:12 *1841:D 2.56694e-05
28 *239:12 *268:38 6.26559e-05
*RES
1 *1803:X *268:12 24.9964 
2 *268:12 *1859:D 9.3 
3 *268:12 *268:27 14.1607 
4 *268:27 *1832:C 9.3 
5 *268:27 *268:38 7.28571 
6 *268:38 *1841:D 30.55 
7 *268:38 *1804:D 13.8 
*END

*D_NET *269 0.0284685
*CONN
*I *1806:S I *D sky130_fd_sc_hd__mux2_1
*I *1808:S I *D sky130_fd_sc_hd__mux2_1
*I *1811:S I *D sky130_fd_sc_hd__mux2_1
*I *1812:S I *D sky130_fd_sc_hd__mux2_1
*I *1807:S I *D sky130_fd_sc_hd__mux2_1
*I *1805:S I *D sky130_fd_sc_hd__mux2_1
*I *1809:S I *D sky130_fd_sc_hd__mux2_1
*I *1810:S I *D sky130_fd_sc_hd__mux2_1
*I *1804:Y O *D sky130_fd_sc_hd__nand4_4
*CAP
1 *1806:S 3.08845e-05
2 *1808:S 0
3 *1811:S 0.000201906
4 *1812:S 0
5 *1807:S 0
6 *1805:S 0.000463461
7 *1809:S 0.000780139
8 *1810:S 0
9 *1804:Y 0.000224103
10 *269:141 0.00133728
11 *269:107 0.00181352
12 *269:103 0.00298992
13 *269:77 0.00296502
14 *269:61 0.00126137
15 *269:26 0.00216641
16 *269:12 0.00265901
17 *269:8 0.00161062
18 *1805:S *383:8 0.000301184
19 *1806:S *1729:A3 1.04232e-05
20 *1806:S *1806:A0 1.40034e-05
21 *1806:S *407:285 0
22 *1809:S *1634:A2 0.000479645
23 *1809:S *1847:A0 0.000250357
24 *1809:S *1847:A1 9.90367e-05
25 *1809:S *2008:CLK 5.91336e-05
26 *1809:S *2040:CLK 0.000270207
27 *1809:S *274:53 2.79421e-05
28 *1809:S *388:12 0
29 *1809:S *407:463 0
30 *1809:S *408:216 0
31 *1809:S *455:73 1.3701e-05
32 *1811:S *1848:S 0
33 *1811:S *373:10 7.08001e-05
34 *1811:S *381:10 0
35 *1811:S *389:10 0.00015234
36 *269:8 *1729:A2 4.73656e-05
37 *269:8 *273:8 0.000267821
38 *269:8 *273:12 7.6644e-05
39 *269:8 *407:265 0
40 *269:8 *407:427 0
41 *269:8 *451:115 0.000282321
42 *269:8 *452:79 0.000139653
43 *269:8 *452:81 0.000131297
44 *269:12 *1721:A1 0.000119718
45 *269:12 *1729:A2 0.000353065
46 *269:12 *274:20 7.80714e-06
47 *269:12 *407:439 0
48 *269:12 *407:523 0
49 *269:12 *452:81 0.0003042
50 *269:12 *452:83 6.98302e-05
51 *269:12 *452:89 0.000103253
52 *269:26 *1847:A0 5.26184e-05
53 *269:26 *1865:A0 8.3722e-05
54 *269:26 *1865:A1 0.000171271
55 *269:26 *1970:CLK 0.000219828
56 *269:26 *388:12 2.27416e-05
57 *269:26 *429:46 0
58 *269:26 *456:41 0.000175493
59 *269:61 *1729:A2 1.14548e-05
60 *269:61 *1729:A3 5.51537e-05
61 *269:61 *1806:A0 5.11043e-06
62 *269:61 *407:285 0.000163799
63 *269:61 *407:415 4.8843e-05
64 *269:77 *1729:A3 2.27416e-05
65 *269:77 *1806:A0 1.32552e-05
66 *269:77 *1836:A1 0.000146959
67 *269:77 *1971:CLK 6.05161e-06
68 *269:77 *273:40 0.000193713
69 *269:77 *384:12 0
70 *269:77 *407:285 0.000320024
71 *269:77 *408:216 0
72 *269:77 *408:239 0.000368769
73 *269:77 *454:49 3.34672e-05
74 *269:77 *454:53 0.000103974
75 *269:77 *456:84 0
76 *269:103 *1830:A0 0.00024013
77 *269:103 *1830:A1 5.30455e-05
78 *269:103 *1830:S 0.000162342
79 *269:103 *1872:S 0
80 *269:103 *2009:CLK 8.80543e-05
81 *269:103 *2025:CLK 9.92409e-05
82 *269:103 *272:84 0.00126764
83 *269:103 *454:34 5.92418e-05
84 *269:103 *454:41 0.000356022
85 *269:103 *454:89 0.000140933
86 *269:107 *1848:S 0
87 *269:107 *1849:A0 2.84398e-05
88 *269:107 *390:12 1.17968e-05
89 *269:107 *436:133 6.8646e-06
90 *269:141 *1658:A0 0
91 *269:141 *1737:A1 0.000100163
92 *269:141 *1737:A3 2.42516e-05
93 *269:141 *1737:S0 4.14613e-05
94 *269:141 *1807:A0 5.33005e-05
95 *269:141 *1849:A0 0.000115575
96 *269:141 *374:10 7.77652e-05
97 *269:141 *385:8 3.79877e-06
98 *269:141 *390:12 0.000128154
99 *269:141 *427:79 0.000228558
100 *269:141 *453:70 0.000241159
101 *1746:A1 *269:77 2.51343e-06
102 *1970:D *1805:S 8.87524e-05
103 *1970:D *269:26 7.1607e-05
104 *1971:D *269:77 5.07567e-05
105 *1992:D *269:103 3.18676e-05
106 *2003:D *269:12 0.000154762
107 *2009:D *269:103 1.3938e-05
108 *2013:D *269:141 0
109 *2025:D *269:103 4.87669e-06
110 *2040:D *1809:S 0.000147136
*RES
1 *1804:Y *269:8 21.2107 
2 *269:8 *269:12 22.5357 
3 *269:12 *269:26 27.75 
4 *269:26 *1810:S 13.8 
5 *269:26 *1809:S 31.0679 
6 *269:12 *1805:S 15.9071 
7 *269:8 *269:61 12.0357 
8 *269:61 *269:77 33 
9 *269:77 *269:103 44.6786 
10 *269:103 *269:107 8.55357 
11 *269:107 *269:141 48.0893 
12 *269:141 *1807:S 9.3 
13 *269:107 *1812:S 13.8 
14 *269:103 *1811:S 18.4786 
15 *269:77 *1808:S 9.3 
16 *269:61 *1806:S 10.0321 
*END

*D_NET *270 0.030264
*CONN
*I *1815:S I *D sky130_fd_sc_hd__mux2_1
*I *1817:S I *D sky130_fd_sc_hd__mux2_1
*I *1820:S I *D sky130_fd_sc_hd__mux2_1
*I *1814:S I *D sky130_fd_sc_hd__mux2_1
*I *1816:S I *D sky130_fd_sc_hd__mux2_1
*I *1821:S I *D sky130_fd_sc_hd__mux2_1
*I *1818:S I *D sky130_fd_sc_hd__mux2_1
*I *1819:S I *D sky130_fd_sc_hd__mux2_1
*I *1813:X O *D sky130_fd_sc_hd__and4bb_4
*CAP
1 *1815:S 0.000479101
2 *1817:S 0
3 *1820:S 0.00104493
4 *1814:S 0
5 *1816:S 1.99857e-05
6 *1821:S 0.000455018
7 *1818:S 0.000126579
8 *1819:S 0.000340023
9 *1813:X 0.000399034
10 *270:105 0.00186386
11 *270:91 0.00232834
12 *270:47 0.00123016
13 *270:34 0.00111543
14 *270:30 0.00175918
15 *270:18 0.00180266
16 *270:16 0.00161964
17 *1815:S *1740:S1 0.000105833
18 *1815:S *1815:A1 0.000147167
19 *1815:S *296:6 0.000139907
20 *1815:S *408:45 4.02462e-05
21 *1816:S *1779:A1 1.04232e-05
22 *1818:S *455:160 0.000314037
23 *1819:S *433:10 1.46717e-05
24 *1819:S *433:76 6.8646e-06
25 *1819:S *433:122 7.95674e-05
26 *1819:S *453:116 2.8266e-06
27 *1819:S *453:125 6.44449e-05
28 *1819:S *453:164 0.000124284
29 *1819:S *456:108 0.000143674
30 *1819:S *457:31 0
31 *1820:S *1740:A1 3.34295e-05
32 *1820:S *1740:A3 0.000183713
33 *1820:S *1740:S1 0
34 *1820:S *1753:A1 0.00040279
35 *1820:S *1789:A1 0.000144773
36 *1820:S *1820:A1 5.7661e-06
37 *1820:S *1897:CLK 0
38 *1820:S *402:10 5.41794e-05
39 *1821:S *1821:A0 6.05161e-06
40 *1821:S *1968:CLK 1.76135e-05
41 *1821:S *436:48 0.000464504
42 *1821:S *457:18 0.000175526
43 *270:16 *1758:B 5.33005e-05
44 *270:16 *407:248 8.1366e-05
45 *270:16 *409:52 1.28171e-05
46 *270:30 *1640:B1 0.000397924
47 *270:30 *1735:B1 0.000872948
48 *270:30 *1779:A0 0.000119203
49 *270:30 *1779:A1 7.48301e-06
50 *270:30 *1814:A1 2.89016e-05
51 *270:34 *1779:A1 2.44318e-05
52 *270:34 *1816:A0 0.000529356
53 *270:34 *408:431 6.87574e-05
54 *270:34 *453:164 0.000440711
55 *270:47 *1631:S1 9.09134e-05
56 *270:47 *1937:CLK 0.00014759
57 *270:47 *433:122 2.05762e-05
58 *270:47 *436:48 0.000117369
59 *270:47 *457:31 0
60 *270:91 *1759:A0 0.000374745
61 *270:91 *1939:CLK 0.000245349
62 *270:91 *2078:A 0.000169793
63 *270:91 *319:8 0.000152333
64 *270:91 *407:18 3.80808e-05
65 *270:91 *408:80 0.000385717
66 *270:91 *408:90 0.00038571
67 *270:91 *416:120 0
68 *270:91 *425:12 0
69 *270:91 *425:44 0.000137082
70 *270:91 *425:75 0
71 *270:91 *425:84 0
72 *270:91 *452:150 0.000437934
73 *270:105 *1740:S1 0.000186773
74 *270:105 *1955:CLK 0.00037616
75 *270:105 *1963:CLK 0.000174755
76 *1717:B *270:16 0.000313293
77 *1723:B2 *270:16 0.000161134
78 *1733:B *270:47 5.33882e-05
79 *1739:A1 *270:30 0.000569213
80 *1739:A2 *270:30 0.000140933
81 *1739:B2 *270:30 2.99025e-05
82 *1756:S *1820:S 0.000267037
83 *1758:D *270:16 2.84026e-05
84 *1787:S *1815:S 0.000227273
85 *1878:S *270:91 9.88232e-05
86 *1916:D *1820:S 8.68665e-05
87 *1918:D *270:91 0.000363245
88 *1932:D *1819:S 0.000288557
89 *1937:D *270:47 0
90 *1955:D *1815:S 0.000125547
91 *1955:D *270:105 0.000158274
92 *1957:D *1820:S 1.64343e-05
93 *1963:D *270:105 0.000541451
94 *1978:D *270:30 7.48091e-05
95 *1979:D *1815:S 5.33005e-05
96 *1985:D *1821:S 6.8646e-06
97 *2058:D *1821:S 0.000100831
98 *29:8 *270:30 0.00171657
99 *34:14 *1820:S 0.000128053
100 *163:36 *270:30 0.000271352
101 *164:73 *270:30 4.16984e-05
102 *262:36 *1820:S 0.00049041
103 *266:19 *1815:S 7.05143e-06
104 *266:19 *270:91 0.000268665
105 *266:35 *1815:S 2.26327e-05
106 *267:32 *1819:S 0.000267698
*RES
1 *1813:X *270:16 26.2286 
2 *270:16 *270:18 3 
3 *270:18 *270:30 37.1786 
4 *270:30 *270:34 10.375 
5 *270:34 *1819:S 23.8 
6 *270:34 *270:47 14.3929 
7 *270:47 *1818:S 16.8 
8 *270:47 *1821:S 33.7107 
9 *270:30 *1816:S 9.72857 
10 *270:18 *1814:S 9.3 
11 *270:16 *270:91 38.875 
12 *270:91 *270:105 16.4643 
13 *270:105 *1820:S 49.8536 
14 *270:105 *1817:S 9.3 
15 *270:91 *1815:S 28.2286 
*END

*D_NET *271 0.00261474
*CONN
*I *1823:D I *D sky130_fd_sc_hd__and4bb_4
*I *1868:C I *D sky130_fd_sc_hd__nand4b_4
*I *1850:D I *D sky130_fd_sc_hd__nand4_4
*I *1885:D I *D sky130_fd_sc_hd__and4b_4
*I *1822:Y O *D sky130_fd_sc_hd__nor2_2
*CAP
1 *1823:D 0
2 *1868:C 0
3 *1850:D 0.000147743
4 *1885:D 0.000181051
5 *1822:Y 0
6 *271:19 0.000256322
7 *271:17 0.000236876
8 *271:4 0.000309349
9 *1850:D *277:86 8.16036e-05
10 *1850:D *411:43 0.00015134
11 *1850:D *450:50 3.32731e-05
12 *1850:D *450:61 9.60939e-05
13 *1885:D *1803:B 4.27338e-05
14 *1885:D *1885:B 0.00018077
15 *1885:D *1885:C 2.89114e-05
16 *1885:D *411:70 0.000392026
17 *271:17 *1711:A2 0
18 *271:17 *409:94 0.000182868
19 *271:17 *412:222 0
20 *271:17 *414:29 9.69119e-06
21 *271:19 *272:8 0
22 *271:19 *277:86 3.92757e-05
23 *271:19 *409:94 0.000179383
24 *271:19 *412:222 0
25 *1803:A *1885:D 5.33005e-05
26 *268:12 *1885:D 1.21289e-05
*RES
1 *1822:Y *271:4 9.3 
2 *271:4 *1885:D 14.3714 
3 *271:4 *271:17 7.05357 
4 *271:17 *271:19 2.85714 
5 *271:19 *1850:D 17.5321 
6 *271:19 *1868:C 13.8 
7 *271:17 *1823:D 13.8 
*END

*D_NET *272 0.0299869
*CONN
*I *1827:S I *D sky130_fd_sc_hd__mux2_1
*I *1831:S I *D sky130_fd_sc_hd__mux2_1
*I *1826:S I *D sky130_fd_sc_hd__mux2_1
*I *1830:S I *D sky130_fd_sc_hd__mux2_1
*I *1824:S I *D sky130_fd_sc_hd__mux2_1
*I *1828:S I *D sky130_fd_sc_hd__mux2_1
*I *1829:S I *D sky130_fd_sc_hd__mux2_1
*I *1825:S I *D sky130_fd_sc_hd__mux2_1
*I *1823:X O *D sky130_fd_sc_hd__and4bb_4
*CAP
1 *1827:S 2.23854e-05
2 *1831:S 0.000131833
3 *1826:S 0.00136487
4 *1830:S 0.000106992
5 *1824:S 0
6 *1828:S 0.000852165
7 *1829:S 0
8 *1825:S 0
9 *1823:X 8.24476e-05
10 *272:99 0.00181597
11 *272:84 0.00157626
12 *272:64 0.00169658
13 *272:35 0.00250113
14 *272:25 0.00327512
15 *272:14 0.00194428
16 *272:8 0.000924772
17 *1826:S *1634:S0 0
18 *1826:S *1736:A0 0
19 *1826:S *1736:S0 0
20 *1826:S *1738:S 0.000409903
21 *1826:S *1826:A0 8.92968e-05
22 *1826:S *2007:CLK 9.57064e-05
23 *1826:S *379:10 2.28335e-05
24 *1826:S *416:45 0
25 *1826:S *455:14 5.23057e-05
26 *1826:S *455:20 0
27 *1826:S *456:16 9.7659e-05
28 *1828:S *1641:A1 0.000125731
29 *1828:S *1874:A1 4.80729e-05
30 *1828:S *408:148 0.00033297
31 *1828:S *408:150 0.00021692
32 *1828:S *408:154 0.000340405
33 *1830:S *1830:A0 9.80173e-05
34 *1831:S *1831:A0 1.74352e-05
35 *1831:S *1831:A1 2.89114e-05
36 *272:8 *277:86 1.08359e-05
37 *272:8 *412:222 5.57914e-05
38 *272:14 *1702:B 0
39 *272:14 *1850:B 7.26841e-05
40 *272:14 *1868:B 0.000128154
41 *272:14 *275:16 0.000174835
42 *272:14 *277:86 0.00022878
43 *272:14 *411:33 7.79781e-06
44 *272:14 *412:222 6.8646e-06
45 *272:14 *450:61 5.66157e-05
46 *272:14 *452:46 9.71197e-05
47 *272:25 *1728:A0 6.0038e-05
48 *272:25 *1825:A0 0.000576267
49 *272:25 *1852:A1 0
50 *272:25 *1869:A1 0.000128146
51 *272:25 *1870:A1 5.90443e-06
52 *272:25 *2045:CLK 0.000268001
53 *272:25 *275:16 0
54 *272:25 *335:10 0.000194299
55 *272:25 *336:10 9.27685e-05
56 *272:25 *431:70 1.5424e-05
57 *272:25 *452:46 9.71197e-05
58 *272:35 *1874:A1 0.00027438
59 *272:35 *1886:A0 5.19842e-06
60 *272:35 *278:102 1.74352e-05
61 *272:35 *278:110 0.000258086
62 *272:35 *279:10 6.7257e-05
63 *272:35 *335:10 0.00017469
64 *272:35 *451:29 2.65105e-05
65 *272:64 *1832:A_N 0.000706727
66 *272:64 *277:18 0.00146273
67 *272:64 *277:86 0.000294913
68 *272:64 *412:39 0.000392032
69 *272:84 *1744:S0 0.000124861
70 *272:84 *1827:A0 0.000111439
71 *272:84 *277:18 0.000484518
72 *272:84 *277:30 0.000566245
73 *272:84 *282:14 4.87953e-05
74 *272:84 *409:176 0
75 *272:84 *454:89 5.72984e-05
76 *272:99 *428:17 8.99419e-05
77 *272:99 *428:19 5.16489e-05
78 *272:99 *428:23 8.49614e-05
79 *272:99 *428:66 5.16489e-05
80 *1644:B1 *272:84 0.000385003
81 *1722:A0 *272:25 0
82 *1746:A0 *272:84 0.0001399
83 *1746:A1 *272:84 0
84 *1987:D *272:25 5.03772e-05
85 *1993:D *272:99 0.000100823
86 *2007:D *1826:S 0
87 *2023:D *1826:S 0.000315172
88 *2044:D *272:35 2.60782e-05
89 *2045:D *272:25 0
90 *2060:D *272:35 0
91 *2064:D *1826:S 0
92 *181:14 *1828:S 0
93 *197:12 *272:84 5.31122e-05
94 *253:10 *1826:S 0.00062496
95 *253:10 *272:99 0.000961787
96 *269:103 *1830:S 0.000162342
97 *269:103 *272:84 0.00126764
98 *271:19 *272:8 0
*RES
1 *1823:X *272:8 15.7464 
2 *272:8 *272:14 13.4643 
3 *272:14 *1825:S 9.3 
4 *272:14 *272:25 39.7143 
5 *272:25 *272:35 33.3036 
6 *272:35 *1829:S 13.8 
7 *272:35 *1828:S 34.1036 
8 *272:25 *1824:S 13.8 
9 *272:8 *272:64 22.2857 
10 *272:64 *272:84 46.8036 
11 *272:84 *1830:S 12.0321 
12 *272:84 *272:99 16.7679 
13 *272:99 *1826:S 43.5857 
14 *272:99 *1831:S 15.9786 
15 *272:64 *1827:S 9.72857 
*END

*D_NET *273 0.0206624
*CONN
*I *1836:S I *D sky130_fd_sc_hd__mux2_1
*I *1838:S I *D sky130_fd_sc_hd__mux2_1
*I *1837:S I *D sky130_fd_sc_hd__mux2_1
*I *1839:S I *D sky130_fd_sc_hd__mux2_1
*I *1835:S I *D sky130_fd_sc_hd__mux2_1
*I *1840:S I *D sky130_fd_sc_hd__mux2_1
*I *1833:S I *D sky130_fd_sc_hd__mux2_1
*I *1834:S I *D sky130_fd_sc_hd__mux2_1
*I *1832:Y O *D sky130_fd_sc_hd__nand4b_4
*CAP
1 *1836:S 0
2 *1838:S 0.000105927
3 *1837:S 0
4 *1839:S 0.000974123
5 *1835:S 0.000424805
6 *1840:S 0.000162765
7 *1833:S 0.000607501
8 *1834:S 2.26968e-05
9 *1832:Y 0.000206493
10 *273:63 0.00139893
11 *273:54 0.00114649
12 *273:52 0.00157193
13 *273:46 0.0011055
14 *273:40 0.00138679
15 *273:12 0.000679963
16 *273:8 0.00123168
17 *1833:S *1833:A1 1.02504e-05
18 *1833:S *1834:A0 9.41642e-05
19 *1833:S *1842:S 0.0001267
20 *1833:S *278:94 0.000357609
21 *1833:S *278:102 1.02504e-05
22 *1833:S *407:427 3.79104e-05
23 *1833:S *407:439 3.56119e-05
24 *1833:S *431:8 2.14658e-05
25 *1833:S *431:12 2.28598e-05
26 *1833:S *452:46 0.000112418
27 *1833:S *452:68 0.000245182
28 *1834:S *1834:A0 5.52238e-05
29 *1835:S *1737:S1 0.000168549
30 *1835:S *1862:A0 0.000462842
31 *1835:S *1862:S 0.000100726
32 *1835:S *1888:S 0
33 *1835:S *361:10 7.6644e-05
34 *1835:S *453:51 9.69119e-06
35 *1835:S *453:90 7.4826e-05
36 *1838:S *1838:A0 0.000151123
37 *1838:S *1838:A1 2.27416e-05
38 *1839:S *1650:A0 6.81083e-05
39 *1839:S *1650:S1 0.000939369
40 *1839:S *1658:A2 0
41 *1839:S *1862:S 5.0725e-05
42 *1839:S *1866:A0 0.000389861
43 *1839:S *1866:S 0.000475215
44 *1839:S *427:10 2.16719e-05
45 *1839:S *427:21 6.37408e-06
46 *1839:S *427:94 0.000148911
47 *1839:S *453:90 0.00049228
48 *1839:S *457:85 0.000141729
49 *1840:S *1840:A0 5.49489e-05
50 *273:8 *1804:A 0.000199698
51 *273:8 *1841:C 0.000103275
52 *273:8 *407:265 0
53 *273:8 *451:115 0.000135559
54 *273:12 *407:265 0
55 *273:40 *1971:CLK 2.28499e-05
56 *273:40 *431:12 0.00101425
57 *273:46 *1744:S0 5.41797e-05
58 *273:46 *1808:A1 0.00019484
59 *273:46 *1863:S 1.78353e-05
60 *273:46 *276:61 9.10431e-06
61 *273:46 *386:14 0.000320031
62 *273:46 *407:285 7.0758e-05
63 *273:46 *408:216 0
64 *273:52 *1635:S 0.000309752
65 *273:52 *1738:S 4.18895e-05
66 *273:52 *1838:A0 0.000176208
67 *273:54 *1738:S 0.00040279
68 *273:54 *455:73 5.96516e-05
69 *1644:B1 *273:46 0.000202806
70 *2005:D *1835:S 0.000103032
71 *2038:D *1835:S 0
72 *2039:D *273:46 0.000153054
73 *174:14 *273:52 4.8843e-05
74 *176:8 *273:52 9.80173e-05
75 *183:8 *1838:S 0.000275218
76 *183:8 *273:52 9.90367e-05
77 *239:12 *1833:S 0
78 *269:8 *273:8 0.000267821
79 *269:8 *273:12 7.6644e-05
80 *269:77 *273:40 0.000193713
*RES
1 *1832:Y *273:8 20.6036 
2 *273:8 *273:12 5.53571 
3 *273:12 *1834:S 9.83571 
4 *273:12 *1833:S 32.3714 
5 *273:8 *273:40 19.3393 
6 *273:40 *273:46 20.6607 
7 *273:46 *273:52 12.5893 
8 *273:52 *273:54 16.9643 
9 *273:54 *1840:S 11.8893 
10 *273:54 *273:63 4.5 
11 *273:63 *1835:S 26.3714 
12 *273:63 *1839:S 44.7238 
13 *273:52 *1837:S 9.3 
14 *273:46 *1838:S 13.675 
15 *273:40 *1836:S 9.3 
*END

*D_NET *274 0.0197479
*CONN
*I *1842:S I *D sky130_fd_sc_hd__mux2_1
*I *1843:S I *D sky130_fd_sc_hd__mux2_1
*I *1847:S I *D sky130_fd_sc_hd__mux2_1
*I *1846:S I *D sky130_fd_sc_hd__mux2_1
*I *1844:S I *D sky130_fd_sc_hd__mux2_1
*I *1848:S I *D sky130_fd_sc_hd__mux2_1
*I *1849:S I *D sky130_fd_sc_hd__mux2_1
*I *1845:S I *D sky130_fd_sc_hd__mux2_1
*I *1841:X O *D sky130_fd_sc_hd__and4b_4
*CAP
1 *1842:S 0.000632757
2 *1843:S 0.000202373
3 *1847:S 9.79542e-05
4 *1846:S 2.23854e-05
5 *1844:S 2.22847e-05
6 *1848:S 0.000702769
7 *1849:S 4.26718e-05
8 *1845:S 6.04819e-05
9 *1841:X 0.000254763
10 *274:106 0.00083513
11 *274:61 0.00180715
12 *274:55 0.00197839
13 *274:53 0.00214472
14 *274:31 0.00154193
15 *274:20 0.00159165
16 *274:10 0.0015699
17 *1842:S *278:102 0.000768736
18 *1842:S *407:439 0.000128154
19 *1842:S *430:67 6.44515e-05
20 *1842:S *451:75 5.83233e-05
21 *1842:S *451:86 0.000545151
22 *1842:S *451:101 0.000237521
23 *1843:S *1861:A0 0.000116029
24 *1843:S *1861:A1 9.41642e-05
25 *1843:S *276:35 0.000186662
26 *1843:S *376:10 0
27 *1845:S *1845:A1 7.77652e-05
28 *1847:S *456:52 2.22043e-05
29 *1848:S *1849:A0 0
30 *1848:S *381:10 0
31 *1848:S *427:66 0
32 *1849:S *1849:A0 2.14757e-05
33 *1849:S *1849:A1 5.71472e-05
34 *274:10 *2037:CLK 7.80714e-06
35 *274:10 *276:16 5.39648e-05
36 *274:10 *408:117 0.000389146
37 *274:10 *451:115 0.000631454
38 *274:20 *1845:A1 0.00021528
39 *274:20 *2037:CLK 1.19309e-05
40 *274:20 *278:94 0
41 *274:20 *407:439 3.93986e-05
42 *274:20 *451:115 0.000176226
43 *274:20 *452:89 0.000110843
44 *274:31 *455:102 0
45 *274:31 *456:52 2.37761e-05
46 *274:31 *456:63 3.15739e-05
47 *274:31 *456:84 3.19295e-05
48 *274:53 *1634:A2 2.40476e-05
49 *274:53 *1634:A3 0.000441781
50 *274:53 *1738:S 9.57306e-05
51 *274:53 *1846:A1 0.000170955
52 *274:53 *363:12 1.21508e-05
53 *274:53 *426:98 0.000126446
54 *274:53 *455:73 1.21258e-05
55 *274:53 *456:52 4.41198e-05
56 *274:55 *1844:A0 0.000281938
57 *274:55 *1846:A0 1.00073e-05
58 *274:55 *1846:A1 3.18676e-05
59 *274:55 *1862:A0 4.87953e-05
60 *274:55 *453:79 3.22663e-05
61 *274:55 *453:90 1.32552e-05
62 *274:61 *1844:A0 4.82947e-05
63 *274:61 *1849:A0 0
64 *274:61 *427:66 0
65 *1635:A1 *274:31 7.95714e-05
66 *1635:A1 *274:53 6.10018e-06
67 *1809:S *274:53 2.79421e-05
68 *1811:S *1848:S 0
69 *1833:S *1842:S 0.0001267
70 *1976:D *1848:S 4.25809e-05
71 *1977:D *274:61 0
72 *2003:D *274:20 3.67257e-05
73 *2007:D *274:53 6.16848e-05
74 *2015:D *274:55 5.52238e-05
75 *2017:D *1848:S 0
76 *2018:D *274:61 0
77 *2037:D *274:10 0.000150618
78 *2038:D *274:55 5.52302e-05
79 *176:12 *274:31 6.74911e-05
80 *239:12 *1842:S 2.8046e-05
81 *269:12 *274:20 7.80714e-06
82 *269:107 *1848:S 0
*RES
1 *1841:X *274:10 23.1571 
2 *274:10 *274:20 28.5714 
3 *274:20 *1845:S 10.6571 
4 *274:20 *274:31 9.63393 
5 *274:31 *274:53 32.4732 
6 *274:53 *274:55 15.3214 
7 *274:55 *274:61 22.1607 
8 *274:61 *1849:S 14.7464 
9 *274:61 *1848:S 26.3714 
10 *274:55 *1844:S 9.72857 
11 *274:53 *1846:S 9.72857 
12 *274:31 *1847:S 15.0232 
13 *274:10 *274:106 4.5 
14 *274:106 *1843:S 13.55 
15 *274:106 *1842:S 35.5679 
*END

*D_NET *275 0.0327602
*CONN
*I *1854:S I *D sky130_fd_sc_hd__mux2_1
*I *1857:S I *D sky130_fd_sc_hd__mux2_1
*I *1858:S I *D sky130_fd_sc_hd__mux2_1
*I *1852:S I *D sky130_fd_sc_hd__mux2_1
*I *1851:S I *D sky130_fd_sc_hd__mux2_1
*I *1855:S I *D sky130_fd_sc_hd__mux2_1
*I *1853:S I *D sky130_fd_sc_hd__mux2_1
*I *1856:S I *D sky130_fd_sc_hd__mux2_1
*I *1850:Y O *D sky130_fd_sc_hd__nand4_4
*CAP
1 *1854:S 0.000164555
2 *1857:S 0.000141364
3 *1858:S 0.000672237
4 *1852:S 5.32008e-05
5 *1851:S 2.23854e-05
6 *1855:S 0.000105054
7 *1853:S 0.00123158
8 *1856:S 0.000168189
9 *1850:Y 0.00010374
10 *275:121 0.0019016
11 *275:111 0.00334742
12 *275:57 0.00254791
13 *275:44 0.00204267
14 *275:34 0.00175823
15 *275:16 0.00159202
16 *275:6 0.00266479
17 *1852:S *1852:A0 6.05161e-06
18 *1853:S *1633:A2 3.06878e-06
19 *1853:S *1736:A2 5.33005e-05
20 *1853:S *1736:A3 4.884e-05
21 *1853:S *1888:A0 3.17148e-05
22 *1853:S *2064:CLK 0.000122159
23 *1853:S *345:8 0.000222878
24 *1853:S *347:6 1.6539e-05
25 *1854:S *1854:A1 0.000129868
26 *1854:S *454:34 0
27 *1855:S *1736:S0 5.41794e-05
28 *1855:S *1736:S1 5.33005e-05
29 *1855:S *1855:A1 5.33005e-05
30 *1855:S *1890:A0 0.000131297
31 *1855:S *355:10 0.000246057
32 *1855:S *455:20 0
33 *1856:S *1856:A1 8.54718e-05
34 *1856:S *1991:CLK 6.42242e-05
35 *1856:S *348:10 3.92757e-05
36 *1857:S *1830:A0 1.08359e-05
37 *1857:S *1857:A1 5.71472e-05
38 *1857:S *1892:A0 7.83659e-05
39 *1857:S *349:8 7.29667e-05
40 *1857:S *457:50 3.15645e-05
41 *1858:S *1657:A3 0.00011197
42 *1858:S *1830:A0 0.000125639
43 *1858:S *1831:A1 2.89114e-05
44 *1858:S *1858:A1 0.000197984
45 *1858:S *1871:S 8.8581e-05
46 *1858:S *1892:S 6.77565e-05
47 *1858:S *2080:A 0.000134748
48 *1858:S *276:61 0
49 *1858:S *278:41 5.47706e-05
50 *1858:S *416:22 3.95689e-05
51 *1858:S *436:92 0.000767765
52 *1858:S *457:50 2.19778e-05
53 *1858:S *457:52 7.79781e-06
54 *275:6 *411:43 1.98839e-05
55 *275:6 *411:244 4.72917e-05
56 *275:16 *1728:A2 0.00012401
57 *275:16 *1852:A1 0.000344203
58 *275:16 *1870:A0 0.000117378
59 *275:16 *1887:A0 0.000198691
60 *275:16 *1995:CLK 0
61 *275:16 *2045:CLK 0
62 *275:16 *277:86 5.56943e-05
63 *275:16 *277:92 5.60111e-05
64 *275:16 *352:10 6.93856e-05
65 *275:16 *408:134 0.000172546
66 *275:16 *411:33 0.000151333
67 *275:34 *1641:S0 4.58976e-05
68 *275:34 *1720:S0 4.58194e-05
69 *275:34 *1720:S1 0
70 *275:34 *1851:A1 0.000306317
71 *275:34 *1852:A0 0.000142896
72 *275:34 *1860:S 0
73 *275:34 *1887:S 0.000184745
74 *275:34 *277:102 0.000172869
75 *275:34 *408:142 0.000556123
76 *275:34 *408:146 0.000708622
77 *275:34 *409:98 0
78 *275:34 *430:14 0
79 *275:34 *451:66 0
80 *275:44 *1641:A2 0.000121662
81 *275:44 *1641:A3 0
82 *275:44 *1641:S0 0.000570922
83 *275:44 *1991:CLK 2.61337e-05
84 *275:44 *348:10 0.000120485
85 *275:57 *1633:A2 6.13757e-06
86 *275:57 *1991:CLK 6.97685e-05
87 *275:57 *2024:CLK 0.000161139
88 *275:57 *356:6 2.88018e-06
89 *275:111 *1841:C 0.000268409
90 *275:111 *1889:A0 0
91 *275:111 *277:30 9.25014e-06
92 *275:111 *278:22 0.000501403
93 *275:111 *411:33 1.04232e-05
94 *275:111 *411:43 0.000314139
95 *275:111 *450:39 0.000125547
96 *275:111 *450:50 0.000547025
97 *275:111 *450:61 1.5424e-05
98 *275:111 *454:34 0
99 *275:121 *1889:A0 0.000184745
100 *275:121 *1892:A0 5.52302e-05
101 *275:121 *1892:S 3.69047e-06
102 *275:121 *2063:CLK 0.000399848
103 *275:121 *277:30 0.000162614
104 *275:121 *285:8 0.000178847
105 *1738:A0 *1853:S 4.46186e-06
106 *1841:D *275:111 0.000348213
107 *1990:D *275:57 0.000411936
108 *1992:D *275:121 8.95121e-05
109 *2019:D *275:34 5.17614e-05
110 *2024:D *275:57 0.000286408
111 *2036:D *275:34 0.000509464
112 *2044:D *275:34 0.00012401
113 *2046:D *1853:S 0.000315165
114 *2049:D *1856:S 0
115 *2049:D *275:57 0.000141981
116 *2063:D *275:121 0.000147136
117 *2064:D *1853:S 0.000620242
118 *2066:D *1857:S 0
119 *176:12 *1854:S 0.000100726
120 *176:12 *275:111 6.5185e-05
121 *181:14 *275:44 0.000216862
122 *272:14 *275:16 0.000174835
123 *272:25 *275:16 0
*RES
1 *1850:Y *275:6 10.6571 
2 *275:6 *275:16 23.75 
3 *275:16 *275:34 37.625 
4 *275:34 *275:44 21.0714 
5 *275:44 *1856:S 17.8714 
6 *275:44 *275:57 21.0536 
7 *275:57 *1853:S 36.9071 
8 *275:57 *1855:S 21.9964 
9 *275:34 *1851:S 9.72857 
10 *275:16 *1852:S 10.2464 
11 *275:6 *275:111 37.6429 
12 *275:111 *275:121 27.75 
13 *275:121 *1858:S 31.1214 
14 *275:121 *1857:S 17.1214 
15 *275:111 *1854:S 17.8714 
*END

*D_NET *276 0.023656
*CONN
*I *1860:S I *D sky130_fd_sc_hd__mux2_1
*I *1865:S I *D sky130_fd_sc_hd__mux2_1
*I *1864:S I *D sky130_fd_sc_hd__mux2_1
*I *1863:S I *D sky130_fd_sc_hd__mux2_1
*I *1867:S I *D sky130_fd_sc_hd__mux2_1
*I *1866:S I *D sky130_fd_sc_hd__mux2_1
*I *1862:S I *D sky130_fd_sc_hd__mux2_1
*I *1861:S I *D sky130_fd_sc_hd__mux2_1
*I *1859:X O *D sky130_fd_sc_hd__and4bb_4
*CAP
1 *1860:S 0.000796821
2 *1865:S 0
3 *1864:S 0.00112095
4 *1863:S 0.000306099
5 *1867:S 0
6 *1866:S 0.000471859
7 *1862:S 0.000180706
8 *1861:S 2.98058e-05
9 *1859:X 0.000510276
10 *276:117 0.00174943
11 *276:67 0.000771095
12 *276:61 0.00239462
13 *276:39 0.00294159
14 *276:35 0.00151686
15 *276:22 0.000897883
16 *276:16 0.0016462
17 *1860:S *1728:S0 0.000394969
18 *1860:S *2037:CLK 2.59355e-05
19 *1860:S *407:427 2.38769e-05
20 *1860:S *408:142 0
21 *1860:S *409:98 0.000502184
22 *1861:S *1729:A2 5.58941e-05
23 *1861:S *1861:A0 0
24 *1862:S *1737:S0 0
25 *1862:S *1840:A0 5.2781e-05
26 *1862:S *1844:A0 1.76039e-05
27 *1862:S *1862:A0 3.51442e-05
28 *1863:S *1863:A0 5.76599e-05
29 *1863:S *408:216 0.000126439
30 *1864:S *1865:A0 1.76135e-05
31 *1864:S *408:207 0
32 *1866:S *1840:A0 6.55528e-06
33 *1866:S *1866:A1 0.000180066
34 *1866:S *1867:A0 7.83587e-05
35 *1866:S *427:10 0.000176234
36 *1866:S *427:94 3.67548e-05
37 *1866:S *436:133 0.00012869
38 *1866:S *453:90 0
39 *276:16 *2037:CLK 5.66157e-05
40 *276:16 *278:94 0.00054196
41 *276:16 *408:117 0.00100218
42 *276:16 *450:14 2.28598e-05
43 *276:16 *452:32 3.87848e-05
44 *276:22 *1729:A0 0
45 *276:22 *1729:A2 7.6644e-05
46 *276:22 *1861:A0 0
47 *276:22 *2037:CLK 6.05161e-06
48 *276:22 *407:427 1.50771e-05
49 *276:35 *1861:A0 6.62898e-05
50 *276:35 *376:10 0.000197807
51 *276:35 *429:99 4.70078e-05
52 *276:39 *2039:CLK 1.58163e-05
53 *276:39 *429:99 0.000103004
54 *276:39 *429:101 6.81335e-05
55 *276:61 *1888:S 0
56 *276:61 *1973:CLK 8.71761e-05
57 *276:61 *1993:CLK 2.27416e-05
58 *276:61 *2039:CLK 4.55333e-05
59 *276:61 *386:14 7.47251e-05
60 *276:61 *407:311 0.000351679
61 *276:61 *408:216 0.000103974
62 *276:61 *436:92 3.5707e-05
63 *276:61 *436:100 0.000441731
64 *276:67 *436:100 4.10641e-05
65 *276:67 *436:104 9.90431e-05
66 *276:117 *1642:A0 9.85699e-05
67 *276:117 *1642:A1 0.000122942
68 *276:117 *1642:A2 0
69 *276:117 *1838:A1 3.92757e-05
70 *276:117 *1861:A0 0
71 *276:117 *1865:A0 6.42145e-05
72 *276:117 *2004:CLK 0
73 *276:117 *408:207 0
74 *276:117 *408:216 0
75 *276:117 *429:84 1.00375e-05
76 *276:117 *429:99 0.000136178
77 *1643:A1 *276:117 0.000417184
78 *1835:S *1862:S 0.000100726
79 *1839:S *1862:S 5.0725e-05
80 *1839:S *1866:S 0.000475215
81 *1843:S *276:35 0.000186662
82 *1858:S *276:61 0
83 *1973:D *276:61 0.00038372
84 *1993:D *276:61 8.03949e-05
85 *2012:D *276:35 2.07491e-05
86 *2012:D *276:61 0
87 *2026:D *276:61 0.00010326
88 *2037:D *276:16 8.15095e-05
89 *2037:D *276:22 2.53061e-05
90 *2039:D *1863:S 3.57844e-05
91 *2039:D *276:61 9.22693e-05
92 *2041:D *276:117 0
93 *181:14 *1864:S 0
94 *268:27 *276:16 0.000237811
95 *273:46 *1863:S 1.78353e-05
96 *273:46 *276:61 9.10431e-06
97 *274:10 *276:16 5.39648e-05
98 *275:34 *1860:S 0
*RES
1 *1859:X *276:16 35.2107 
2 *276:16 *276:22 8.53571 
3 *276:22 *1861:S 14.5321 
4 *276:22 *276:35 12.0179 
5 *276:35 *276:39 9.14286 
6 *276:39 *276:61 47.6071 
7 *276:61 *276:67 6.69643 
8 *276:67 *1862:S 18.4786 
9 *276:67 *1866:S 26.3714 
10 *276:61 *1867:S 9.3 
11 *276:39 *1863:S 19.8357 
12 *276:35 *276:117 19.8036 
13 *276:117 *1864:S 31.9786 
14 *276:117 *1865:S 13.8 
15 *276:16 *1860:S 31.4964 
*END

*D_NET *277 0.029848
*CONN
*I *1870:S I *D sky130_fd_sc_hd__mux2_1
*I *1869:S I *D sky130_fd_sc_hd__mux2_1
*I *1873:S I *D sky130_fd_sc_hd__mux2_1
*I *1874:S I *D sky130_fd_sc_hd__mux2_1
*I *1872:S I *D sky130_fd_sc_hd__mux2_1
*I *1875:S I *D sky130_fd_sc_hd__mux2_1
*I *1876:S I *D sky130_fd_sc_hd__mux2_1
*I *1871:S I *D sky130_fd_sc_hd__mux2_1
*I *1868:Y O *D sky130_fd_sc_hd__nand4b_4
*CAP
1 *1870:S 0.000338908
2 *1869:S 0
3 *1873:S 0.000677118
4 *1874:S 0
5 *1872:S 4.64642e-05
6 *1875:S 0.000380344
7 *1876:S 0
8 *1871:S 0.00129343
9 *1868:Y 0
10 *277:102 0.0016257
11 *277:92 0.00181523
12 *277:86 0.00181892
13 *277:38 0.00159342
14 *277:30 0.00226423
15 *277:18 0.00324912
16 *277:4 0.00223213
17 *1870:S *1870:A0 0.000146533
18 *1870:S *1870:A1 1.07719e-05
19 *1870:S *408:134 6.05161e-06
20 *1871:S *1657:A0 0.000219373
21 *1871:S *1657:A3 8.44271e-06
22 *1871:S *1831:A0 7.83659e-05
23 *1871:S *1876:A1 0.000128154
24 *1871:S *2080:A 0.000200413
25 *1871:S *407:295 0.000146139
26 *1871:S *407:311 9.03745e-05
27 *1871:S *416:45 0
28 *1872:S *454:89 1.38238e-05
29 *1873:S *1856:A1 9.90431e-05
30 *1873:S *1873:A1 5.33334e-05
31 *1873:S *1874:A0 1.40415e-05
32 *1873:S *1874:A1 1.55885e-05
33 *1873:S *1890:S 0.000752267
34 *1873:S *456:18 0.000240631
35 *1873:S *456:195 9.82524e-05
36 *1873:S *456:202 0.00019557
37 *1875:S *1649:A2 3.17163e-05
38 *1875:S *1875:A0 0.000142856
39 *1875:S *1875:A1 2.44318e-05
40 *1875:S *408:249 0
41 *1875:S *436:77 0.000282661
42 *277:18 *1872:A1 4.87953e-05
43 *277:18 *282:14 0.000128154
44 *277:18 *454:89 2.87555e-06
45 *277:30 *1889:A0 2.15245e-05
46 *277:30 *2063:CLK 0.000148177
47 *277:30 *278:22 9.4175e-05
48 *277:30 *454:89 1.2823e-05
49 *277:38 *407:373 2.79527e-05
50 *277:38 *408:249 0
51 *277:38 *416:39 0.0001399
52 *277:38 *436:77 0.000130458
53 *277:86 *1868:B 0.000119618
54 *277:86 *409:94 0
55 *277:86 *409:98 0.00029748
56 *277:86 *411:43 1.37292e-05
57 *277:86 *450:61 5.83304e-05
58 *277:92 *1720:S1 6.05161e-06
59 *277:92 *1728:A2 5.74562e-05
60 *277:92 *1869:A1 4.51611e-05
61 *277:92 *1887:A0 0.000104227
62 *277:92 *408:134 0.000177941
63 *277:92 *409:98 2.60158e-05
64 *277:92 *430:8 0.00020402
65 *277:92 *430:14 0.000330937
66 *277:92 *430:67 0.000167992
67 *277:102 *1720:S1 0.000139087
68 *277:102 *1869:A0 0.00022459
69 *277:102 *1869:A1 3.67142e-05
70 *277:102 *1874:A1 6.05161e-06
71 *277:102 *1886:A0 0.000196269
72 *277:102 *1986:CLK 0.000200413
73 *277:102 *408:148 5.33433e-05
74 *277:102 *430:32 0.000165262
75 *277:102 *451:18 0
76 *277:102 *451:29 1.08359e-05
77 *277:102 *451:44 9.16166e-05
78 *277:102 *451:55 6.5185e-05
79 *277:102 *451:66 1.76135e-05
80 *1651:A1 *1875:S 0.000106542
81 *1722:A0 *277:92 0.000379873
82 *1746:A0 *277:18 9.25014e-06
83 *1746:A1 *277:18 0.000363805
84 *1850:D *277:86 8.16036e-05
85 *1858:S *1871:S 8.8581e-05
86 *1974:D *1871:S 0
87 *1992:D *277:30 3.29239e-05
88 *2015:D *1871:S 0.000111132
89 *2020:D *277:92 0.000574443
90 *2024:D *1873:S 3.18676e-05
91 *2044:D *277:102 0.000100814
92 *2047:D *277:18 0.000155302
93 *2049:D *1873:S 5.71472e-05
94 *2050:D *1875:S 0.000103267
95 *2063:D *277:30 5.5855e-05
96 *176:12 *277:30 2.05938e-05
97 *253:10 *1875:S 0
98 *262:77 *1875:S 0.000126639
99 *269:103 *1872:S 0
100 *271:19 *277:86 3.92757e-05
101 *272:8 *277:86 1.08359e-05
102 *272:14 *277:86 0.00022878
103 *272:64 *277:18 0.00146273
104 *272:64 *277:86 0.000294913
105 *272:84 *277:18 0.000484518
106 *272:84 *277:30 0.000566245
107 *275:16 *277:86 5.56943e-05
108 *275:16 *277:92 5.60111e-05
109 *275:34 *277:102 0.000172869
110 *275:111 *277:30 9.25014e-06
111 *275:121 *277:30 0.000162614
*RES
1 *1868:Y *277:4 9.3 
2 *277:4 *277:18 34.9062 
3 *277:18 *277:30 34.6116 
4 *277:30 *277:38 10.3571 
5 *277:38 *1871:S 44.8357 
6 *277:38 *1876:S 9.3 
7 *277:30 *1875:S 24.3 
8 *277:18 *1872:S 10.5813 
9 *277:4 *277:86 18.7143 
10 *277:86 *277:92 30.5714 
11 *277:92 *277:102 31 
12 *277:102 *1874:S 9.3 
13 *277:102 *1873:S 27.6571 
14 *277:92 *1869:S 9.3 
15 *277:86 *1870:S 19.4071 
*END

*D_NET *278 0.0291544
*CONN
*I *1887:S I *D sky130_fd_sc_hd__mux2_1
*I *1886:S I *D sky130_fd_sc_hd__mux2_1
*I *1891:S I *D sky130_fd_sc_hd__mux2_1
*I *1890:S I *D sky130_fd_sc_hd__mux2_1
*I *1892:S I *D sky130_fd_sc_hd__mux2_1
*I *1893:S I *D sky130_fd_sc_hd__mux2_1
*I *1888:S I *D sky130_fd_sc_hd__mux2_1
*I *1889:S I *D sky130_fd_sc_hd__mux2_1
*I *1885:X O *D sky130_fd_sc_hd__and4b_4
*CAP
1 *1887:S 0.000202902
2 *1886:S 2.23854e-05
3 *1891:S 0.000175023
4 *1890:S 0.000659347
5 *1892:S 0.000130294
6 *1893:S 4.38378e-05
7 *1888:S 0.00119025
8 *1889:S 2.19905e-05
9 *1885:X 0.000193945
10 *278:110 0.00174891
11 *278:102 0.00168396
12 *278:94 0.00180982
13 *278:41 0.00133192
14 *278:37 0.00181001
15 *278:22 0.00297732
16 *278:12 0.00242727
17 *1887:S *1852:A0 2.14658e-05
18 *1887:S *452:89 0.000220016
19 *1888:S *1657:A1 0
20 *1888:S *1737:S1 0.000289915
21 *1888:S *1866:A1 0.000186669
22 *1888:S *1893:A0 6.05161e-06
23 *1888:S *419:12 0.000153054
24 *1888:S *419:100 0.000194299
25 *1888:S *419:113 0.000190155
26 *1888:S *436:92 0
27 *1888:S *453:51 0
28 *1888:S *453:90 0
29 *1889:S *1889:A0 7.69776e-06
30 *1890:S *1856:A1 0
31 *1890:S *1873:A0 0.000251754
32 *1890:S *1873:A1 3.48705e-05
33 *1890:S *456:18 9.22103e-06
34 *1890:S *456:22 0.000202842
35 *1891:S *1891:A0 9.99644e-06
36 *1891:S *1891:A1 5.52302e-05
37 *1891:S *429:46 8.89385e-05
38 *1891:S *456:22 0.000309066
39 *1892:S *1892:A0 7.48301e-06
40 *1892:S *1892:A1 5.52302e-05
41 *1892:S *457:52 0.000129636
42 *1893:S *1893:A0 5.03772e-05
43 *278:12 *1885:C 0.000139913
44 *278:12 *411:70 2.28598e-05
45 *278:12 *411:74 0.000137983
46 *278:12 *450:18 0.0002617
47 *278:12 *450:22 0.00010326
48 *278:12 *450:96 0.000119618
49 *278:12 *450:107 2.31791e-05
50 *278:12 *451:115 0.000509472
51 *278:22 *1744:A2 0.000385487
52 *278:22 *1841:C 7.84357e-05
53 *278:22 *1889:A0 0.000231415
54 *278:22 *282:14 0.000172735
55 *278:41 *1866:A1 0.00015134
56 *278:41 *1893:A0 2.94103e-05
57 *278:41 *436:92 0
58 *278:41 *453:90 0
59 *278:41 *457:52 7.07773e-05
60 *278:94 *1804:B 9.71197e-05
61 *278:94 *1841:C 1.39726e-05
62 *278:94 *2037:CLK 0.000173083
63 *278:94 *407:439 0.000123288
64 *278:94 *450:39 2.42516e-05
65 *278:94 *452:32 0.000382923
66 *278:94 *452:46 5.58941e-05
67 *278:94 *452:89 0.000139913
68 *278:102 *1720:S0 2.09897e-05
69 *278:102 *1833:A1 0.000128941
70 *278:102 *407:439 0
71 *278:102 *407:523 0.00102872
72 *278:102 *451:18 1.52978e-05
73 *278:102 *451:29 0.000105345
74 *278:102 *451:44 0.000150896
75 *278:102 *451:55 6.30292e-05
76 *278:102 *451:66 0.00020933
77 *278:102 *451:75 9.39578e-05
78 *278:110 *1886:A0 2.28499e-05
79 *278:110 *284:10 5.33334e-05
80 *278:110 *451:29 5.52302e-05
81 *1738:A0 *1888:S 0.000119441
82 *1738:A1 *1888:S 7.83587e-05
83 *1833:S *278:94 0.000357609
84 *1833:S *278:102 1.02504e-05
85 *1835:S *1888:S 0
86 *1842:S *278:102 0.000768736
87 *1858:S *1892:S 6.77565e-05
88 *1858:S *278:41 5.47706e-05
89 *1873:S *1890:S 0.000752267
90 *1989:D *278:22 1.76204e-05
91 *1991:D *278:110 0.000277555
92 *2015:D *1888:S 0
93 *2024:D *1890:S 0.000177941
94 *2024:D *1891:S 0.000148911
95 *2026:D *1888:S 0
96 *2038:D *1888:S 0.000247037
97 *2060:D *278:102 0
98 *2067:D *1888:S 0.000175519
99 *176:12 *278:22 0
100 *272:35 *278:102 1.74352e-05
101 *272:35 *278:110 0.000258086
102 *274:20 *278:94 0
103 *275:34 *1887:S 0.000184745
104 *275:111 *278:22 0.000501403
105 *275:121 *1892:S 3.69047e-06
106 *276:16 *278:94 0.00054196
107 *276:61 *1888:S 0
108 *277:30 *278:22 9.4175e-05
*RES
1 *1885:X *278:12 26.5679 
2 *278:12 *278:22 28.8304 
3 *278:22 *1889:S 14.0768 
4 *278:22 *278:37 10.0379 
5 *278:37 *278:41 7.50893 
6 *278:41 *1888:S 47.0143 
7 *278:41 *1893:S 10.2464 
8 *278:37 *1892:S 16.9696 
9 *278:12 *278:94 29.5893 
10 *278:94 *278:102 33.6429 
11 *278:102 *278:110 22.0179 
12 *278:110 *1890:S 29.2286 
13 *278:110 *1891:S 19.2464 
14 *278:102 *1886:S 9.72857 
15 *278:94 *1887:S 13.9429 
*END

*D_NET *279 0.00136763
*CONN
*I *1720:A0 I *D sky130_fd_sc_hd__mux4_1
*I *1824:A0 I *D sky130_fd_sc_hd__mux2_1
*I *1986:Q O *D sky130_fd_sc_hd__dfxtp_1
*CAP
1 *1720:A0 0.000160483
2 *1824:A0 0
3 *1986:Q 0.000323576
4 *279:10 0.00048406
5 *1720:A0 *335:10 0.000250201
6 *279:10 *335:10 7.83659e-05
7 *1722:A0 *1720:A0 0
8 *1986:D *279:10 3.69047e-06
9 *272:35 *279:10 6.7257e-05
*RES
1 *1986:Q *279:10 19.0321 
2 *279:10 *1824:A0 13.8 
3 *279:10 *1720:A0 17.4964 
*END

*D_NET *280 0.00176169
*CONN
*I *1825:A0 I *D sky130_fd_sc_hd__mux2_1
*I *1728:A0 I *D sky130_fd_sc_hd__mux4_1
*I *1987:Q O *D sky130_fd_sc_hd__dfxtp_1
*CAP
1 *1825:A0 0.000263626
2 *1728:A0 1.32847e-05
3 *1987:Q 0.000124974
4 *280:8 0.000401884
5 *1728:A0 *1870:A1 3.17067e-05
6 *1825:A0 *1870:A1 3.69697e-05
7 *1825:A0 *1987:CLK 0
8 *1825:A0 *2045:CLK 6.8646e-06
9 *1825:A0 *2085:A 4.72917e-05
10 *1825:A0 *431:70 0.000186662
11 *1825:A0 *432:10 0
12 *1987:D *1825:A0 1.21258e-05
13 *272:25 *1728:A0 6.0038e-05
14 *272:25 *1825:A0 0.000576267
*RES
1 *1987:Q *280:8 15.1571 
2 *280:8 *1728:A0 14.5321 
3 *280:8 *1825:A0 21.175 
*END

*D_NET *281 0.00127061
*CONN
*I *1736:A0 I *D sky130_fd_sc_hd__mux4_1
*I *1826:A0 I *D sky130_fd_sc_hd__mux2_1
*I *1988:Q O *D sky130_fd_sc_hd__dfxtp_1
*CAP
1 *1736:A0 0.000250052
2 *1826:A0 0.000233777
3 *1988:Q 0
4 *281:6 0.000483828
5 *1736:A0 *337:10 0
6 *1826:A0 *1826:A1 5.71472e-05
7 *1826:A0 *455:14 7.17235e-05
8 *1826:A0 *456:16 2.95641e-05
9 *1826:S *1736:A0 0
10 *1826:S *1826:A0 8.92968e-05
11 *1988:D *1826:A0 0
12 *2113:A *1826:A0 5.52238e-05
*RES
1 *1988:Q *281:6 13.8 
2 *281:6 *1826:A0 19.0321 
3 *281:6 *1736:A0 17.8714 
*END

*D_NET *282 0.00197298
*CONN
*I *1744:A0 I *D sky130_fd_sc_hd__mux4_1
*I *1827:A0 I *D sky130_fd_sc_hd__mux2_1
*I *1989:Q O *D sky130_fd_sc_hd__dfxtp_1
*CAP
1 *1744:A0 0
2 *1827:A0 0.000147055
3 *1989:Q 0.00042862
4 *282:14 0.000575675
5 *282:14 *1744:A2 9.60875e-05
6 *1989:D *1827:A0 0.000137983
7 *2047:D *282:14 0.000126439
8 *272:84 *1827:A0 0.000111439
9 *272:84 *282:14 4.87953e-05
10 *277:18 *282:14 0.000128154
11 *278:22 *282:14 0.000172735
*RES
1 *1989:Q *282:14 25.1214 
2 *282:14 *1827:A0 12.7286 
3 *282:14 *1744:A0 9.3 
*END

*D_NET *283 0.000718853
*CONN
*I *1828:A0 I *D sky130_fd_sc_hd__mux2_1
*I *1633:A0 I *D sky130_fd_sc_hd__mux4_1
*I *1990:Q O *D sky130_fd_sc_hd__dfxtp_1
*CAP
1 *1828:A0 0.000107093
2 *1633:A0 2.52056e-05
3 *1990:Q 0.000114202
4 *283:10 0.0002465
5 *1633:A0 *1633:A1 5.52302e-05
6 *1828:A0 *1633:A1 2.31791e-05
7 *283:10 *1633:A1 0.000128154
8 *283:10 *2024:CLK 1.92905e-05
9 *1990:D *1828:A0 0
10 *2065:D *283:10 0
*RES
1 *1990:Q *283:10 15.9786 
2 *283:10 *1633:A0 14.3357 
3 *283:10 *1828:A0 15.7464 
*END

*D_NET *284 0.000811103
*CONN
*I *1641:A0 I *D sky130_fd_sc_hd__mux4_1
*I *1829:A0 I *D sky130_fd_sc_hd__mux2_1
*I *1991:Q O *D sky130_fd_sc_hd__dfxtp_1
*CAP
1 *1641:A0 0.000118006
2 *1829:A0 0
3 *1991:Q 0.000124341
4 *284:10 0.000242347
5 *1641:A0 *1641:A1 5.97719e-05
6 *1641:A0 *1874:A1 4.58096e-05
7 *284:10 *1829:A1 0.00010326
8 *284:10 *1874:A1 6.42338e-05
9 *181:14 *1641:A0 0
10 *278:110 *284:10 5.33334e-05
*RES
1 *1991:Q *284:10 16.3893 
2 *284:10 *1829:A0 13.8 
3 *284:10 *1641:A0 16.3536 
*END

*D_NET *285 0.00241201
*CONN
*I *1649:A0 I *D sky130_fd_sc_hd__mux4_1
*I *1830:A0 I *D sky130_fd_sc_hd__mux2_1
*I *1992:Q O *D sky130_fd_sc_hd__dfxtp_1
*CAP
1 *1649:A0 4.97194e-05
2 *1830:A0 0.000267645
3 *1992:Q 0.00013718
4 *285:8 0.000454544
5 *1649:A0 *1892:A0 6.73939e-05
6 *1649:A0 *349:8 5.83304e-05
7 *1649:A0 *357:10 6.42242e-05
8 *1830:A0 *1830:A1 0.000525381
9 *1830:A0 *1892:A0 9.25014e-06
10 *1830:A0 *357:10 0.000104227
11 *1830:A0 *416:22 2.06427e-05
12 *1830:S *1830:A0 9.80173e-05
13 *1857:S *1830:A0 1.08359e-05
14 *1858:S *1830:A0 0.000125639
15 *269:103 *1830:A0 0.00024013
16 *275:121 *285:8 0.000178847
*RES
1 *1992:Q *285:8 15.5679 
2 *285:8 *1830:A0 22.7286 
3 *285:8 *1649:A0 15.4429 
*END

*D_NET *286 0.00207442
*CONN
*I *1657:A0 I *D sky130_fd_sc_hd__mux4_1
*I *1831:A0 I *D sky130_fd_sc_hd__mux2_1
*I *1993:Q O *D sky130_fd_sc_hd__dfxtp_1
*CAP
1 *1657:A0 0.000134804
2 *1831:A0 0.000321334
3 *1993:Q 0
4 *286:6 0.000456138
5 *1657:A0 *1657:A3 0.000153056
6 *1657:A0 *1858:A1 0.000119618
7 *1831:A0 *1831:A1 0.000401764
8 *1831:A0 *1858:A1 7.83659e-05
9 *1659:A1 *1657:A0 9.41642e-05
10 *1831:S *1831:A0 1.74352e-05
11 *1871:S *1657:A0 0.000219373
12 *1871:S *1831:A0 7.83659e-05
*RES
1 *1993:Q *286:6 13.8 
2 *286:6 *1831:A0 19.0679 
3 *286:6 *1657:A0 18.0321 
*END

*D_NET *287 0.00252905
*CONN
*I *1716:A2 I *D sky130_fd_sc_hd__mux4_1
*I *1795:A0 I *D sky130_fd_sc_hd__mux2_1
*I *1962:Q O *D sky130_fd_sc_hd__dfxtp_1
*CAP
1 *1716:A2 0.000653933
2 *1795:A0 0.000328568
3 *1962:Q 0
4 *287:4 0.000982501
5 *1716:A2 *1639:S0 4.16996e-05
6 *1716:A2 *1716:A0 5.33334e-05
7 *1716:A2 *1716:A3 4.58194e-05
8 *1716:A2 *1716:S0 9.60939e-05
9 *1716:A2 *407:248 1.19959e-05
10 *1716:A2 *411:111 5.66157e-05
11 *1716:A2 *416:96 5.66157e-05
12 *1795:A0 *1639:S0 2.75742e-05
13 *260:16 *1795:A0 0.000133319
14 *267:14 *1795:A0 0
15 *267:56 *1795:A0 4.09856e-05
*RES
1 *1962:Q *287:4 9.3 
2 *287:4 *1795:A0 23.9429 
3 *287:4 *1716:A2 26.7866 
*END

*D_NET *288 0.00227412
*CONN
*I *1796:A0 I *D sky130_fd_sc_hd__mux2_1
*I *1726:A2 I *D sky130_fd_sc_hd__mux4_1
*I *1963:Q O *D sky130_fd_sc_hd__dfxtp_1
*CAP
1 *1796:A0 0.000273335
2 *1726:A2 0.000437101
3 *1963:Q 0
4 *288:6 0.000710436
5 *1726:A2 *1895:CLK 0
6 *1726:A2 *408:30 1.66955e-05
7 *1796:A0 *425:84 0
8 *1727:A2 *1726:A2 0.000135298
9 *1796:S *1796:A0 0.000142856
10 *1963:D *1796:A0 0.000150618
11 *266:35 *1726:A2 0.000407779
*RES
1 *1963:Q *288:6 13.8 
2 *288:6 *1726:A2 24.2911 
3 *288:6 *1796:A0 19.1571 
*END

*D_NET *289 0.00249597
*CONN
*I *1732:A2 I *D sky130_fd_sc_hd__mux4_1
*I *1797:A0 I *D sky130_fd_sc_hd__mux2_1
*I *1964:Q O *D sky130_fd_sc_hd__dfxtp_1
*CAP
1 *1732:A2 0.000465546
2 *1797:A0 0.00023764
3 *1964:Q 0
4 *289:4 0.000703186
5 *1732:A2 *1637:S1 5.66157e-05
6 *1732:A2 *1732:A3 0.000118553
7 *1732:A2 *1732:S0 5.62136e-05
8 *1732:A2 *1752:A1 0.000224583
9 *1732:A2 *1816:A0 1.38308e-05
10 *1797:A0 *1732:A3 1.92905e-05
11 *1797:A0 *1788:A0 0.000271951
12 *1791:S *1797:A0 0.000270229
13 *1896:D *1732:A2 5.83304e-05
*RES
1 *1964:Q *289:4 9.3 
2 *289:4 *1797:A0 23.5321 
3 *289:4 *1732:A2 25.2375 
*END

*D_NET *290 0.0018684
*CONN
*I *1740:A2 I *D sky130_fd_sc_hd__mux4_1
*I *1798:A0 I *D sky130_fd_sc_hd__mux2_1
*I *1965:Q O *D sky130_fd_sc_hd__dfxtp_1
*CAP
1 *1740:A2 0.000550147
2 *1798:A0 0.00023382
3 *1965:Q 0
4 *290:4 0.000783967
5 *1740:A2 *1817:A0 2.17375e-05
6 *1740:A2 *1817:A1 7.77751e-05
7 *1740:A2 *1897:CLK 0
8 *1740:A2 *394:6 1.57885e-05
9 *1740:A2 *454:12 2.19778e-05
10 *1740:A2 *454:14 2.34204e-05
11 *1798:A0 *1740:A0 0
12 *1798:A0 *1957:CLK 0
13 *1798:A0 *407:167 0
14 *1798:A0 *421:10 0
15 *1965:D *1798:A0 0
16 *266:35 *1740:A2 1.00442e-05
17 *267:87 *1798:A0 0.000129727
*RES
1 *1965:Q *290:4 9.3 
2 *290:4 *1798:A0 22.3 
3 *290:4 *1740:A2 25.7687 
*END

*D_NET *291 0.00306573
*CONN
*I *1631:A2 I *D sky130_fd_sc_hd__mux4_1
*I *1799:A0 I *D sky130_fd_sc_hd__mux2_1
*I *1966:Q O *D sky130_fd_sc_hd__dfxtp_1
*CAP
1 *1631:A2 0.000591102
2 *1799:A0 0.000543546
3 *1966:Q 0
4 *291:4 0.00113465
5 *1631:A2 *1631:A3 2.79421e-05
6 *1631:A2 *395:10 0.00010096
7 *1631:A2 *407:71 2.6869e-05
8 *1631:A2 *407:75 4.87953e-05
9 *1631:A2 *407:89 0.000172091
10 *1799:A0 *1966:CLK 0.000227532
11 *1966:D *1799:A0 3.92854e-05
12 *262:115 *1631:A2 0.000152958
*RES
1 *1966:Q *291:4 9.3 
2 *291:4 *1799:A0 25.2107 
3 *291:4 *1631:A2 29.1437 
*END

*D_NET *292 0.00160138
*CONN
*I *1637:A2 I *D sky130_fd_sc_hd__mux4_1
*I *1800:A0 I *D sky130_fd_sc_hd__mux2_1
*I *1967:Q O *D sky130_fd_sc_hd__dfxtp_1
*CAP
1 *1637:A2 0.000512736
2 *1800:A0 0.000183321
3 *1967:Q 0
4 *292:4 0.000696057
5 *1637:A2 *1637:A0 9.58363e-05
6 *1637:A2 *1637:A1 2.91615e-05
7 *1637:A2 *1637:A3 5.71124e-05
8 *1637:A2 *1637:S1 2.71557e-05
9 *1800:A0 *300:10 0
10 *1967:D *1800:A0 0
*RES
1 *1967:Q *292:4 9.3 
2 *292:4 *1800:A0 20.6929 
3 *292:4 *1637:A2 25.1437 
*END

*D_NET *293 0.00149752
*CONN
*I *1647:A2 I *D sky130_fd_sc_hd__mux4_1
*I *1801:A0 I *D sky130_fd_sc_hd__mux2_1
*I *1968:Q O *D sky130_fd_sc_hd__dfxtp_1
*CAP
1 *1647:A2 0.000209454
2 *1801:A0 0.000289368
3 *1968:Q 0
4 *293:4 0.000498822
5 *1647:A2 *1647:A3 0.000187718
6 *1801:A0 *421:33 7.83659e-05
7 *1648:A2 *1647:A2 0.00014291
8 *1960:D *1801:A0 0
9 *267:87 *1801:A0 6.53244e-05
10 *267:89 *1801:A0 2.55587e-05
*RES
1 *1968:Q *293:4 9.3 
2 *293:4 *1801:A0 22.3357 
3 *293:4 *1647:A2 14.7732 
*END

*D_NET *294 0.00184822
*CONN
*I *1653:A2 I *D sky130_fd_sc_hd__mux4_1
*I *1802:A0 I *D sky130_fd_sc_hd__mux2_1
*I *1969:Q O *D sky130_fd_sc_hd__dfxtp_1
*CAP
1 *1653:A2 0.000460275
2 *1802:A0 0.000207013
3 *1969:Q 0
4 *294:4 0.000667288
5 *1653:A2 *1653:A0 1.02504e-05
6 *1653:A2 *1653:A3 0
7 *1653:A2 *1653:S0 0.000103094
8 *1653:A2 *1757:A1 0.000113647
9 *1653:A2 *1802:A1 0
10 *1653:A2 *436:21 0
11 *1653:A2 *436:25 0.000151061
12 *1802:A0 *1802:A1 2.89114e-05
13 *1799:S *1802:A0 5.33433e-05
14 *1901:D *1653:A2 0
15 *267:89 *1802:A0 5.33334e-05
*RES
1 *1969:Q *294:4 9.3 
2 *294:4 *1802:A0 22.3179 
3 *294:4 *1653:A2 27.5723 
*END

*D_NET *295 0.00230296
*CONN
*I *1716:A3 I *D sky130_fd_sc_hd__mux4_1
*I *1786:A1 I *D sky130_fd_sc_hd__mux2_1
*I *1954:Q O *D sky130_fd_sc_hd__dfxtp_1
*CAP
1 *1716:A3 0.000133972
2 *1786:A1 0.000109998
3 *1954:Q 0.00015419
4 *295:8 0.000398161
5 *1716:A3 *407:248 2.79421e-05
6 *1716:A3 *447:12 0.000241198
7 *1716:A3 *451:141 0.000123762
8 *1786:A1 *407:265 1.69115e-05
9 *1786:A1 *416:92 0.000123475
10 *1786:A1 *416:96 6.59861e-05
11 *1786:A1 *447:12 3.34295e-05
12 *1786:A1 *451:115 1.69961e-05
13 *1786:A1 *451:119 2.89114e-05
14 *1786:A1 *451:141 2.26424e-05
15 *295:8 *1794:A_N 5.52302e-05
16 *1716:A2 *1716:A3 4.58194e-05
17 *1786:S *1786:A1 5.52238e-05
18 *1794:D *295:8 7.29448e-05
19 *1954:D *295:8 5.33334e-05
20 *265:26 *1786:A1 7.6644e-05
21 *265:26 *295:8 0.000437749
22 *267:14 *295:8 8.43535e-06
*RES
1 *1954:Q *295:8 18.4429 
2 *295:8 *1786:A1 17.4071 
3 *295:8 *1716:A3 17.9071 
*END

*D_NET *296 0.000927138
*CONN
*I *1787:A1 I *D sky130_fd_sc_hd__mux2_1
*I *1726:A3 I *D sky130_fd_sc_hd__mux4_1
*I *1955:Q O *D sky130_fd_sc_hd__dfxtp_1
*CAP
1 *1787:A1 0
2 *1726:A3 4.50778e-05
3 *1955:Q 0.000202636
4 *296:6 0.000247713
5 *1726:A3 *408:30 5.80706e-06
6 *1726:A3 *408:45 0.000103898
7 *1726:A3 *452:14 0.000125724
8 *296:6 *1787:A0 2.59355e-05
9 *296:6 *1815:A1 6.05161e-06
10 *1787:S *296:6 2.43875e-05
11 *1815:S *296:6 0.000139907
*RES
1 *1955:Q *296:6 11.8893 
2 *296:6 *1726:A3 19.9429 
3 *296:6 *1787:A1 9.3 
*END

*D_NET *297 0.00155867
*CONN
*I *1788:A1 I *D sky130_fd_sc_hd__mux2_1
*I *1732:A3 I *D sky130_fd_sc_hd__mux4_1
*I *1956:Q O *D sky130_fd_sc_hd__dfxtp_1
*CAP
1 *1788:A1 9.82118e-05
2 *1732:A3 0.000220118
3 *1956:Q 9.95563e-05
4 *297:8 0.000417886
5 *1732:A3 *1732:S0 5.49544e-05
6 *1732:A3 *1752:A1 0.000168841
7 *1732:A3 *1816:A0 0.000133397
8 *1788:A1 *401:12 4.35048e-05
9 *297:8 *393:10 0
10 *297:8 *401:12 1.19309e-05
11 *1732:A2 *1732:A3 0.000118553
12 *1788:S *1788:A1 1.92789e-05
13 *1791:S *1788:A1 6.16744e-05
14 *1791:S *297:8 9.1469e-05
15 *1797:A0 *1732:A3 1.92905e-05
*RES
1 *1956:Q *297:8 16.05 
2 *297:8 *1732:A3 19.8179 
3 *297:8 *1788:A1 15.9786 
*END

*D_NET *298 0.00176502
*CONN
*I *1740:A3 I *D sky130_fd_sc_hd__mux4_1
*I *1789:A1 I *D sky130_fd_sc_hd__mux2_1
*I *1957:Q O *D sky130_fd_sc_hd__dfxtp_1
*CAP
1 *1740:A3 0.000237563
2 *1789:A1 0.00034907
3 *1957:Q 0
4 *298:4 0.000586633
5 *1740:A3 *1897:CLK 0
6 *1740:A3 *454:12 0.00012401
7 *1789:A1 *1740:A1 0
8 *1789:A1 *1753:A1 2.14757e-05
9 *1789:A1 *1957:CLK 0
10 *1756:S *1789:A1 6.4443e-05
11 *1820:S *1740:A3 0.000183713
12 *1820:S *1789:A1 0.000144773
13 *1957:D *1789:A1 0
14 *266:35 *1740:A3 5.33433e-05
*RES
1 *1957:Q *298:4 9.3 
2 *298:4 *1789:A1 23.3536 
3 *298:4 *1740:A3 22.6571 
*END

*D_NET *299 0.00287133
*CONN
*I *1631:A3 I *D sky130_fd_sc_hd__mux4_1
*I *1790:A1 I *D sky130_fd_sc_hd__mux2_1
*I *1958:Q O *D sky130_fd_sc_hd__dfxtp_1
*CAP
1 *1631:A3 0.000679983
2 *1790:A1 9.63563e-05
3 *1958:Q 0.000111953
4 *299:10 0.000888292
5 *1631:A3 *403:8 4.01768e-05
6 *1631:A3 *407:75 3.06878e-06
7 *1790:A1 *1790:A0 0.000321738
8 *299:10 *1790:A0 2.31791e-05
9 *299:10 *455:175 0.000189561
10 *1631:A2 *1631:A3 2.79421e-05
11 *1898:D *1631:A3 9.76689e-05
12 *1982:D *1631:A3 5.83304e-05
13 *262:115 *1631:A3 5.83304e-05
14 *266:71 *1790:A1 0.000164706
15 *266:71 *299:10 0.000104236
16 *266:73 *1790:A1 5.80706e-06
*RES
1 *1958:Q *299:10 16.8893 
2 *299:10 *1790:A1 17.8714 
3 *299:10 *1631:A3 31.4607 
*END

*D_NET *300 0.00303784
*CONN
*I *1637:A3 I *D sky130_fd_sc_hd__mux4_1
*I *1791:A1 I *D sky130_fd_sc_hd__mux2_1
*I *1959:Q O *D sky130_fd_sc_hd__dfxtp_1
*CAP
1 *1637:A3 0.000451611
2 *1791:A1 0.000270276
3 *1959:Q 0.000264804
4 *300:10 0.000986692
5 *1637:A3 *1637:S1 1.73875e-05
6 *1637:A3 *1819:A0 0.000156118
7 *1637:A3 *456:134 0.000228425
8 *1791:A1 *1791:A0 0.000451463
9 *1791:A1 *456:134 0.000129515
10 *300:10 *1637:S0 0
11 *300:10 *396:14 0
12 *1637:A2 *1637:A3 5.71124e-05
13 *1791:S *1791:A1 2.44318e-05
14 *1800:A0 *300:10 0
15 *1959:D *300:10 0
16 *1967:D *300:10 0
*RES
1 *1959:Q *300:10 22.0679 
2 *300:10 *1791:A1 15.175 
3 *300:10 *1637:A3 25.425 
*END

*D_NET *301 0.00250694
*CONN
*I *1647:A3 I *D sky130_fd_sc_hd__mux4_1
*I *1792:A1 I *D sky130_fd_sc_hd__mux2_1
*I *1960:Q O *D sky130_fd_sc_hd__dfxtp_1
*CAP
1 *1647:A3 0.00037332
2 *1792:A1 0.000338628
3 *1960:Q 0.000204724
4 *301:10 0.000916672
5 *1647:A3 *1647:S0 0
6 *1792:A1 *1647:S1 0
7 *1792:A1 *1944:CLK 0.000100735
8 *1792:A1 *421:33 0.000134758
9 *301:10 *1756:A0 0
10 *301:10 *1960:CLK 6.97972e-05
11 *301:10 *421:33 7.4826e-05
12 *1647:A2 *1647:A3 0.000187718
13 *1648:A2 *1647:A3 4.63923e-05
14 *1900:D *301:10 0
15 *266:53 *1792:A1 2.59355e-05
16 *266:65 *1792:A1 3.34366e-05
*RES
1 *1960:Q *301:10 17.8 
2 *301:10 *1792:A1 20.6393 
3 *301:10 *1647:A3 20.1214 
*END

*D_NET *302 0.00155014
*CONN
*I *1653:A3 I *D sky130_fd_sc_hd__mux4_1
*I *1793:A1 I *D sky130_fd_sc_hd__mux2_1
*I *1961:Q O *D sky130_fd_sc_hd__dfxtp_1
*CAP
1 *1653:A3 0.000566216
2 *1793:A1 0.00019316
3 *1961:Q 0
4 *302:4 0.000759376
5 *1653:A3 *1653:A0 3.13838e-05
6 *1793:A1 *436:21 0
7 *1653:A2 *1653:A3 0
*RES
1 *1961:Q *302:4 9.3 
2 *302:4 *1793:A1 20.6929 
3 *302:4 *1653:A3 26.2464 
*END

*D_NET *303 0.00155153
*CONN
*I *1777:A0 I *D sky130_fd_sc_hd__mux2_1
*I *1718:A0 I *D sky130_fd_sc_hd__mux4_1
*I *1946:Q O *D sky130_fd_sc_hd__dfxtp_1
*CAP
1 *1777:A0 4.341e-05
2 *1718:A0 9.4174e-05
3 *1946:Q 0.000137447
4 *303:10 0.000275031
5 *1718:A0 *1768:A1 0.000219711
6 *1777:A0 *1768:A0 8.00806e-05
7 *303:10 *2076:A 3.67142e-05
8 *1768:S *1718:A0 0.000260574
9 *231:24 *1718:A0 4.43256e-05
10 *246:10 *1777:A0 0.000116481
11 *246:10 *303:10 0.000148189
12 *265:101 *1777:A0 2.26424e-05
13 *265:101 *303:10 7.2754e-05
*RES
1 *1946:Q *303:10 16.6929 
2 *303:10 *1718:A0 16.8 
3 *303:10 *1777:A0 15.4429 
*END

*D_NET *304 0.00406016
*CONN
*I *1778:A0 I *D sky130_fd_sc_hd__mux2_1
*I *1724:A0 I *D sky130_fd_sc_hd__mux4_1
*I *1947:Q O *D sky130_fd_sc_hd__dfxtp_1
*CAP
1 *1778:A0 0
2 *1724:A0 0.000297537
3 *1947:Q 0.000336782
4 *304:12 0.000634319
5 *1724:A0 *1726:S0 3.50327e-05
6 *1724:A0 *1778:A1 0.000396898
7 *1724:A0 *2078:A 0.000217042
8 *1724:A0 *2094:A 0.000223891
9 *1724:A0 *425:12 9.25014e-06
10 *1724:A0 *425:40 0.000178847
11 *304:12 *1685:B 0.000177941
12 *1725:A *304:12 5.52302e-05
13 *1778:S *1724:A0 2.44318e-05
14 *1778:S *304:12 2.14658e-05
15 *2053:D *1724:A0 9.51272e-05
16 *163:108 *1724:A0 0.000904132
17 *163:108 *304:12 0.000274288
18 *220:8 *304:12 0.000177941
*RES
1 *1947:Q *304:12 26.0143 
2 *304:12 *1724:A0 29.9071 
3 *304:12 *1778:A0 9.3 
*END

*D_NET *305 0.00244006
*CONN
*I *1779:A0 I *D sky130_fd_sc_hd__mux2_1
*I *1734:A0 I *D sky130_fd_sc_hd__mux4_1
*I *1948:Q O *D sky130_fd_sc_hd__dfxtp_1
*CAP
1 *1779:A0 0.000284578
2 *1734:A0 0
3 *1948:Q 0.000167283
4 *305:8 0.000451861
5 *1779:A0 *1761:A0 0.000117189
6 *1779:A0 *1779:A1 0.000241294
7 *1779:A0 *2087:A 0
8 *1779:A0 *408:431 0.000200406
9 *1779:A0 *416:66 0
10 *1779:A0 *436:77 0
11 *305:8 *1734:A1 0.000231948
12 *305:8 *1761:A0 0.000220455
13 *305:8 *1770:A0 4.46186e-06
14 *305:8 *1770:A1 7.83587e-05
15 *305:8 *416:66 0
16 *1739:A1 *1779:A0 0.000227532
17 *263:55 *1779:A0 9.54907e-05
18 *270:30 *1779:A0 0.000119203
*RES
1 *1948:Q *305:8 18.175 
2 *305:8 *1734:A0 13.8 
3 *305:8 *1779:A0 23.0143 
*END

*D_NET *306 0.00227945
*CONN
*I *1780:A0 I *D sky130_fd_sc_hd__mux2_1
*I *1742:A0 I *D sky130_fd_sc_hd__mux4_1
*I *1949:Q O *D sky130_fd_sc_hd__dfxtp_1
*CAP
1 *1780:A0 0.000815768
2 *1742:A0 3.00142e-05
3 *1949:Q 8.96212e-05
4 *306:12 0.000935403
5 *1742:A0 *1742:A2 3.57366e-05
6 *1780:A0 *1742:A2 0.000124916
7 *1780:A0 *1742:S1 0.000166771
8 *1780:A0 *1949:CLK 6.05161e-06
9 *1780:A0 *314:12 5.11506e-06
10 *306:12 *1742:A2 3.07696e-05
11 *306:12 *410:49 0
12 *1941:D *306:12 3.92854e-05
*RES
1 *1949:Q *306:12 19.8714 
2 *306:12 *1742:A0 10.0321 
3 *306:12 *1780:A0 18.8714 
*END

*D_NET *307 0.00269555
*CONN
*I *1781:A0 I *D sky130_fd_sc_hd__mux2_1
*I *1629:A0 I *D sky130_fd_sc_hd__mux4_1
*I *1950:Q O *D sky130_fd_sc_hd__dfxtp_1
*CAP
1 *1781:A0 0.000600864
2 *1629:A0 0.000293369
3 *1950:Q 0
4 *307:4 0.000894232
5 *1629:A0 *1629:A2 0.000356022
6 *1629:A0 *410:57 4.25716e-05
7 *1781:A0 *1629:A2 4.08637e-05
8 *1781:A0 *1917:CLK 7.83659e-05
9 *1781:A0 *408:384 3.3717e-05
10 *1630:B *1781:A0 9.41642e-05
11 *1950:D *1781:A0 5.7298e-05
12 *231:51 *1629:A0 0.000127439
13 *260:16 *1781:A0 7.6644e-05
*RES
1 *1950:Q *307:4 9.3 
2 *307:4 *1629:A0 23.3536 
3 *307:4 *1781:A0 25.7464 
*END

*D_NET *308 0.00216995
*CONN
*I *1782:A0 I *D sky130_fd_sc_hd__mux2_1
*I *1639:A0 I *D sky130_fd_sc_hd__mux4_1
*I *1951:Q O *D sky130_fd_sc_hd__dfxtp_1
*CAP
1 *1782:A0 0.000688537
2 *1639:A0 0.0001034
3 *1951:Q 0.000123853
4 *308:6 0.00091579
5 *1639:A0 *455:102 0.000144587
6 *1782:A0 *1951:CLK 8.03068e-05
7 *1782:A0 *1954:CLK 0
8 *1882:S *1639:A0 9.27779e-05
9 *1951:D *1782:A0 2.07028e-05
10 *265:26 *1782:A0 0
*RES
1 *1951:Q *308:6 10.6571 
2 *308:6 *1639:A0 21.4607 
3 *308:6 *1782:A0 17.8536 
*END

*D_NET *309 0.00251526
*CONN
*I *1783:A0 I *D sky130_fd_sc_hd__mux2_1
*I *1645:A0 I *D sky130_fd_sc_hd__mux4_1
*I *1952:Q O *D sky130_fd_sc_hd__dfxtp_1
*CAP
1 *1783:A0 0.000316149
2 *1645:A0 0
3 *1952:Q 0.000383347
4 *309:14 0.000699496
5 *1783:A0 *1783:A1 0.000425319
6 *1783:A0 *457:138 5.33005e-05
7 *309:14 *1645:A2 5.52302e-05
8 *309:14 *2090:A 0.000225952
9 *309:14 *407:69 0
10 *1652:B1 *1783:A0 0.000150618
11 *1652:B1 *309:14 0.000150618
12 *1952:D *1783:A0 5.52302e-05
*RES
1 *1952:Q *309:14 20.9429 
2 *309:14 *1645:A0 13.8 
3 *309:14 *1783:A0 20.3893 
*END

*D_NET *310 0.00245885
*CONN
*I *1784:A0 I *D sky130_fd_sc_hd__mux2_1
*I *1655:A0 I *D sky130_fd_sc_hd__mux4_1
*I *1953:Q O *D sky130_fd_sc_hd__dfxtp_1
*CAP
1 *1784:A0 0.000645065
2 *1655:A0 0.000151615
3 *1953:Q 0.000128341
4 *310:10 0.000925021
5 *1655:A0 *1655:A2 1.57885e-05
6 *1784:A0 *1655:A2 7.1263e-05
7 *1784:A0 *1945:CLK 4.46186e-06
8 *1784:A0 *408:394 0.000111327
9 *310:10 *1775:A1 0
10 *310:10 *334:10 0
11 *310:10 *408:402 0
12 *310:10 *436:69 2.19684e-05
13 *1652:B1 *1784:A0 0
14 *1656:A2 *1784:A0 7.83366e-05
15 *1660:B1 *1784:A0 5.96033e-05
16 *1779:S *1784:A0 0.000246064
*RES
1 *1953:Q *310:10 20.55 
2 *310:10 *1655:A0 11.3893 
3 *310:10 *1784:A0 28.4607 
*END

*D_NET *311 0.00261681
*CONN
*I *1768:A1 I *D sky130_fd_sc_hd__mux2_1
*I *1718:A1 I *D sky130_fd_sc_hd__mux4_1
*I *1938:Q O *D sky130_fd_sc_hd__dfxtp_1
*CAP
1 *1768:A1 7.88072e-05
2 *1718:A1 0
3 *1938:Q 0.000556244
4 *311:12 0.000635052
5 *311:12 *1938:CLK 6.48579e-05
6 *1718:A0 *1768:A1 0.000219711
7 *1768:S *1768:A1 5.07108e-05
8 *1769:S *311:12 0.000101545
9 *1938:D *311:12 0.000124214
10 *1946:D *311:12 0.000146474
11 *231:24 *1768:A1 0.000306317
12 *231:24 *311:12 0.000164481
13 *231:30 *311:12 0.000112506
14 *264:102 *311:12 5.58941e-05
*RES
1 *1938:Q *311:12 26.5321 
2 *311:12 *1718:A1 9.3 
3 *311:12 *1768:A1 12.3 
*END

*D_NET *312 0.00234605
*CONN
*I *1769:A1 I *D sky130_fd_sc_hd__mux2_1
*I *1724:A1 I *D sky130_fd_sc_hd__mux4_1
*I *1939:Q O *D sky130_fd_sc_hd__dfxtp_1
*CAP
1 *1769:A1 0.000375599
2 *1724:A1 9.78629e-05
3 *1939:Q 0.000223699
4 *312:6 0.000697161
5 *1724:A1 *1724:A2 2.59355e-05
6 *1724:A1 *1796:A1 2.8266e-06
7 *1724:A1 *452:150 5.33005e-05
8 *1769:A1 *1769:A0 5.68722e-05
9 *1769:A1 *407:12 1.33343e-05
10 *1769:A1 *407:18 0.000103211
11 *1769:A1 *416:124 8.27532e-05
12 *312:6 *416:124 0.000363837
13 *1939:D *1769:A1 0.00012565
14 *2053:D *1724:A1 0.00012401
15 *263:110 *1724:A1 0
*RES
1 *1939:Q *312:6 12.7107 
2 *312:6 *1724:A1 20.4786 
3 *312:6 *1769:A1 16.175 
*END

*D_NET *313 0.00262204
*CONN
*I *1734:A1 I *D sky130_fd_sc_hd__mux4_1
*I *1770:A1 I *D sky130_fd_sc_hd__mux2_1
*I *1940:Q O *D sky130_fd_sc_hd__dfxtp_1
*CAP
1 *1734:A1 0.00016594
2 *1770:A1 0.0002462
3 *1940:Q 0.000157215
4 *313:8 0.000569355
5 *1734:A1 *1734:A3 0.000195555
6 *1734:A1 *2086:A 4.35306e-05
7 *1734:A1 *416:66 1.78353e-05
8 *1770:A1 *1734:A3 9.22948e-05
9 *1770:A1 *1770:A0 0.000354139
10 *1770:A1 *329:10 0.000202716
11 *1770:A1 *416:66 1.69115e-05
12 *313:8 *456:108 0.000225609
13 *16:31 *1770:A1 2.44318e-05
14 *305:8 *1734:A1 0.000231948
15 *305:8 *1770:A1 7.83587e-05
*RES
1 *1940:Q *313:8 15.9786 
2 *313:8 *1770:A1 20.8714 
3 *313:8 *1734:A1 18.3179 
*END

*D_NET *314 0.00339327
*CONN
*I *1771:A1 I *D sky130_fd_sc_hd__mux2_1
*I *1742:A1 I *D sky130_fd_sc_hd__mux4_1
*I *1941:Q O *D sky130_fd_sc_hd__dfxtp_1
*CAP
1 *1771:A1 0.000181344
2 *1742:A1 0.000377478
3 *1941:Q 0.000313201
4 *314:12 0.000872023
5 *1742:A1 *1629:S0 9.25014e-06
6 *1742:A1 *1742:A2 6.12335e-05
7 *1742:A1 *407:55 0.000226513
8 *1742:A1 *410:49 0
9 *1771:A1 *1742:A3 0.000100474
10 *1771:A1 *424:50 7.71617e-05
11 *1771:A1 *424:65 0.000115693
12 *314:12 *1742:A2 3.13387e-05
13 *314:12 *1742:S1 4.87854e-05
14 *1774:S *1771:A1 1.03403e-05
15 *1780:A0 *314:12 5.11506e-06
16 *1941:D *1742:A1 2.10446e-05
17 *29:18 *314:12 0.000382573
18 *163:73 *1771:A1 0.000139907
19 *260:16 *314:12 0.000382573
20 *264:68 *1771:A1 3.72204e-05
*RES
1 *1941:Q *314:12 25.4607 
2 *314:12 *1742:A1 23.3893 
3 *314:12 *1771:A1 22.2107 
*END

*D_NET *315 0.00239185
*CONN
*I *1629:A1 I *D sky130_fd_sc_hd__mux4_1
*I *1772:A1 I *D sky130_fd_sc_hd__mux2_1
*I *1942:Q O *D sky130_fd_sc_hd__dfxtp_1
*CAP
1 *1629:A1 7.65178e-05
2 *1772:A1 0.000282411
3 *1942:Q 0.000190918
4 *315:10 0.000549847
5 *1629:A1 *1629:A3 0.000268396
6 *1629:A1 *408:394 9.05384e-05
7 *1772:A1 *1629:S0 9.25014e-06
8 *1772:A1 *410:57 0.00041474
9 *1772:A1 *455:117 4.72818e-05
10 *315:10 *1629:S0 5.13731e-05
11 *315:10 *410:57 0.000114045
12 *1636:B1 *1772:A1 0
13 *1772:S *1772:A1 1.76135e-05
14 *264:20 *1772:A1 9.71197e-05
15 *265:55 *315:10 0.000181796
*RES
1 *1942:Q *315:10 17.2107 
2 *315:10 *1772:A1 20.8536 
3 *315:10 *1629:A1 16.3893 
*END

*D_NET *316 0.00155222
*CONN
*I *1773:A1 I *D sky130_fd_sc_hd__mux2_1
*I *1639:A1 I *D sky130_fd_sc_hd__mux4_1
*I *1943:Q O *D sky130_fd_sc_hd__dfxtp_1
*CAP
1 *1773:A1 0.000117799
2 *1639:A1 0.000357079
3 *1943:Q 8.8127e-05
4 *316:6 0.000563005
5 *1639:A1 *455:102 3.93893e-05
6 *1773:A1 *454:28 5.07157e-05
7 *1636:B1 *1773:A1 0
8 *1644:A1 *1639:A1 1.34754e-05
9 *1882:S *1639:A1 0.00012501
10 *1943:D *1639:A1 3.72932e-05
11 *176:12 *1773:A1 0
12 *267:30 *1639:A1 2.59355e-05
13 *267:30 *1773:A1 5.66157e-05
14 *267:30 *316:6 7.77751e-05
*RES
1 *1943:Q *316:6 10.6571 
2 *316:6 *1639:A1 23.3536 
3 *316:6 *1773:A1 20.8536 
*END

*D_NET *317 0.0010238
*CONN
*I *1774:A1 I *D sky130_fd_sc_hd__mux2_1
*I *1645:A1 I *D sky130_fd_sc_hd__mux4_1
*I *1944:Q O *D sky130_fd_sc_hd__dfxtp_1
*CAP
1 *1774:A1 0
2 *1645:A1 0.000132777
3 *1944:Q 0.000134335
4 *317:8 0.000267112
5 *1645:A1 *416:138 1.02504e-05
6 *1645:A1 *421:10 0
7 *317:8 *1783:A1 5.33005e-05
8 *317:8 *457:138 0.000230475
9 *1652:B1 *1645:A1 0.000195547
10 *1952:D *1645:A1 0
*RES
1 *1944:Q *317:8 12.3179 
2 *317:8 *1645:A1 20.8536 
3 *317:8 *1774:A1 9.3 
*END

*D_NET *318 0.00190881
*CONN
*I *1655:A1 I *D sky130_fd_sc_hd__mux4_1
*I *1775:A1 I *D sky130_fd_sc_hd__mux2_1
*I *1945:Q O *D sky130_fd_sc_hd__dfxtp_1
*CAP
1 *1655:A1 0
2 *1775:A1 0.000359611
3 *1945:Q 0.000130954
4 *318:10 0.000490566
5 *1775:A1 *1655:A3 0
6 *1775:A1 *1733:A 0.000273269
7 *1775:A1 *334:10 0.000195555
8 *1775:A1 *436:69 0
9 *318:10 *1655:A3 0
10 *318:10 *1655:S0 0
11 *318:10 *1784:A1 1.40415e-05
12 *1733:B *1775:A1 0.00010096
13 *1775:S *1775:A1 5.71472e-05
14 *263:55 *1775:A1 0.00021188
15 *263:55 *318:10 7.4826e-05
16 *310:10 *1775:A1 0
*RES
1 *1945:Q *318:10 16.2821 
2 *318:10 *1775:A1 23.0143 
3 *318:10 *1655:A1 13.8 
*END

*D_NET *319 0.00226453
*CONN
*I *1759:A0 I *D sky130_fd_sc_hd__mux2_1
*I *1718:A2 I *D sky130_fd_sc_hd__mux4_1
*I *1930:Q O *D sky130_fd_sc_hd__dfxtp_1
*CAP
1 *1759:A0 0.000467195
2 *1718:A2 1.1481e-05
3 *1930:Q 5.11981e-05
4 *319:8 0.000529874
5 *1718:A2 *1718:A3 1.14548e-05
6 *1759:A0 *1718:A3 5.66157e-05
7 *1759:A0 *1759:A1 0.00014285
8 *1759:A0 *408:80 9.41642e-05
9 *319:8 *1718:A3 9.25014e-06
10 *1719:A2 *1718:A2 6.98553e-06
11 *1878:S *1759:A0 0.000243635
12 *266:19 *1759:A0 3.88819e-05
13 *266:19 *319:8 7.38652e-05
14 *270:91 *1759:A0 0.000374745
15 *270:91 *319:8 0.000152333
*RES
1 *1930:Q *319:8 15.7464 
2 *319:8 *1718:A2 14.0366 
3 *319:8 *1759:A0 24.2464 
*END

*D_NET *320 0.00203298
*CONN
*I *1724:A2 I *D sky130_fd_sc_hd__mux4_1
*I *1760:A0 I *D sky130_fd_sc_hd__mux2_1
*I *1931:Q O *D sky130_fd_sc_hd__dfxtp_1
*CAP
1 *1724:A2 0.000592619
2 *1760:A0 0
3 *1931:Q 0.000186938
4 *320:6 0.000779557
5 *1724:A2 *1878:A1 5.83304e-05
6 *1724:A2 *1947:CLK 1.83267e-05
7 *1724:A2 *328:10 1.02504e-05
8 *1724:A2 *407:51 2.47753e-05
9 *1724:A2 *452:20 2.94103e-05
10 *1724:A2 *452:150 0.000150092
11 *320:6 *407:51 3.61629e-06
12 *1724:A1 *1724:A2 2.59355e-05
13 *1931:D *320:6 7.80837e-05
14 *263:110 *1724:A2 1.74352e-05
15 *263:110 *320:6 5.76121e-05
*RES
1 *1931:Q *320:6 11.8893 
2 *320:6 *1760:A0 9.3 
3 *320:6 *1724:A2 25.9652 
*END

*D_NET *321 0.00305407
*CONN
*I *1734:A2 I *D sky130_fd_sc_hd__mux4_1
*I *1761:A0 I *D sky130_fd_sc_hd__mux2_1
*I *1932:Q O *D sky130_fd_sc_hd__dfxtp_1
*CAP
1 *1734:A2 0.000339678
2 *1761:A0 0.000218125
3 *1932:Q 0
4 *321:4 0.000557803
5 *1734:A2 *408:431 0.000183344
6 *1734:A2 *436:77 9.24299e-05
7 *1761:A0 *456:108 0.00053026
8 *1761:S *1761:A0 0.000314139
9 *1770:S *1734:A2 0.000173804
10 *1779:A0 *1761:A0 0.000117189
11 *1879:S *1761:A0 6.8646e-06
12 *263:44 *1761:A0 8.57023e-05
13 *263:55 *1761:A0 0.000167266
14 *267:30 *1761:A0 4.70078e-05
15 *305:8 *1761:A0 0.000220455
*RES
1 *1932:Q *321:4 9.3 
2 *321:4 *1761:A0 27.7286 
3 *321:4 *1734:A2 25.7509 
*END

*D_NET *322 0.00198035
*CONN
*I *1742:A2 I *D sky130_fd_sc_hd__mux4_1
*I *1762:A0 I *D sky130_fd_sc_hd__mux2_1
*I *1933:Q O *D sky130_fd_sc_hd__dfxtp_1
*CAP
1 *1742:A2 0.000363338
2 *1762:A0 0.000215984
3 *1933:Q 0
4 *322:4 0.000579322
5 *1742:A2 *407:55 0.000297975
6 *1742:A2 *407:57 5.95522e-05
7 *1762:A0 *1762:A1 1.24469e-05
8 *1762:A0 *407:57 2.17421e-05
9 *1762:A0 *454:22 6.5919e-05
10 *1742:A0 *1742:A2 3.57366e-05
11 *1742:A1 *1742:A2 6.12335e-05
12 *1780:A0 *1742:A2 0.000124916
13 *164:34 *1762:A0 8.00806e-05
14 *306:12 *1742:A2 3.07696e-05
15 *314:12 *1742:A2 3.13387e-05
*RES
1 *1933:Q *322:4 9.3 
2 *322:4 *1762:A0 21.5143 
3 *322:4 *1742:A2 17.8045 
*END

*D_NET *323 0.00202689
*CONN
*I *1629:A2 I *D sky130_fd_sc_hd__mux4_1
*I *1763:A0 I *D sky130_fd_sc_hd__mux2_1
*I *1934:Q O *D sky130_fd_sc_hd__dfxtp_1
*CAP
1 *1629:A2 0.000254265
2 *1763:A0 0.000238765
3 *1934:Q 2.23854e-05
4 *323:6 0.000515415
5 *1629:A2 *1629:S1 2.49484e-05
6 *1629:A2 *408:384 4.78056e-05
7 *1629:A2 *408:394 1.14548e-05
8 *1763:A0 *409:166 0
9 *1763:A0 *455:145 0.000250193
10 *1629:A0 *1629:A2 0.000356022
11 *1636:B1 *1629:A2 0.000148189
12 *1781:A0 *1629:A2 4.08637e-05
13 *1882:S *1763:A0 5.57727e-05
14 *1934:D *1763:A0 0
15 *231:45 *1629:A2 6.98553e-06
16 *231:51 *1763:A0 5.38209e-05
*RES
1 *1934:Q *323:6 9.72857 
2 *323:6 *1763:A0 23.6393 
3 *323:6 *1629:A2 24.7152 
*END

*D_NET *324 0.00178762
*CONN
*I *1639:A2 I *D sky130_fd_sc_hd__mux4_1
*I *1764:A0 I *D sky130_fd_sc_hd__mux2_1
*I *1935:Q O *D sky130_fd_sc_hd__dfxtp_1
*CAP
1 *1639:A2 0.000453961
2 *1764:A0 6.06483e-05
3 *1935:Q 4.5042e-05
4 *324:10 0.000559652
5 *1639:A2 *1639:A3 5.83304e-05
6 *1639:A2 *1639:S0 8.61258e-05
7 *1764:A0 *456:108 5.33005e-05
8 *324:10 *1773:A0 1.52978e-05
9 *324:10 *456:92 3.92757e-05
10 *1882:S *324:10 0.00010326
11 *176:12 *1639:A2 5.66157e-05
12 *263:32 *1639:A2 2.90075e-05
13 *263:36 *1639:A2 7.6682e-05
14 *263:44 *1639:A2 1.24368e-05
15 *263:44 *1764:A0 0.000137983
*RES
1 *1935:Q *324:10 19.6393 
2 *324:10 *1764:A0 10.6571 
3 *324:10 *1639:A2 25.2866 
*END

*D_NET *325 0.00141888
*CONN
*I *1645:A2 I *D sky130_fd_sc_hd__mux4_1
*I *1765:A0 I *D sky130_fd_sc_hd__mux2_1
*I *1936:Q O *D sky130_fd_sc_hd__dfxtp_1
*CAP
1 *1645:A2 0.000331998
2 *1765:A0 9.4794e-05
3 *1936:Q 5.54804e-05
4 *325:6 0.000482273
5 *1645:A2 *1645:A3 1.66955e-05
6 *1645:A2 *2073:A 1.05729e-05
7 *1645:A2 *2090:A 3.30237e-05
8 *1645:A2 *407:69 0
9 *1645:A2 *408:484 0.000125724
10 *1645:A2 *408:493 1.02504e-05
11 *1765:A0 *408:484 0
12 *1883:S *1765:A0 0.000202835
13 *309:14 *1645:A2 5.52302e-05
*RES
1 *1936:Q *325:6 9.83571 
2 *325:6 *1765:A0 20.8536 
3 *325:6 *1645:A2 23.2732 
*END

*D_NET *326 0.00187465
*CONN
*I *1655:A2 I *D sky130_fd_sc_hd__mux4_1
*I *1766:A0 I *D sky130_fd_sc_hd__mux2_1
*I *1937:Q O *D sky130_fd_sc_hd__dfxtp_1
*CAP
1 *1655:A2 0.000428624
2 *1766:A0 0.000254897
3 *1937:Q 0
4 *326:4 0.00068352
5 *1655:A2 *408:394 0
6 *1766:A0 *436:52 9.4724e-05
7 *1766:A0 *436:58 0.000177941
8 *1766:A0 *457:31 0.00014789
9 *1655:A0 *1655:A2 1.57885e-05
10 *1784:A0 *1655:A2 7.1263e-05
*RES
1 *1937:Q *326:4 9.3 
2 *326:4 *1766:A0 23.5321 
3 *326:4 *1655:A2 15.3223 
*END

*D_NET *327 0.00127588
*CONN
*I *1718:A3 I *D sky130_fd_sc_hd__mux4_1
*I *1877:A1 I *D sky130_fd_sc_hd__mux2_1
*I *2052:Q O *D sky130_fd_sc_hd__dfxtp_1
*CAP
1 *1718:A3 0.00032929
2 *1877:A1 3.90531e-05
3 *2052:Q 8.25699e-05
4 *327:6 0.000450913
5 *1718:A3 *408:384 9.58508e-05
6 *1877:A1 *416:120 2.56694e-05
7 *327:6 *408:384 3.14163e-05
8 *1718:A2 *1718:A3 1.14548e-05
9 *1719:A2 *1718:A3 8.83199e-06
10 *1759:A0 *1718:A3 5.66157e-05
11 *1930:D *1877:A1 7.6644e-05
12 *266:19 *1718:A3 5.83233e-05
13 *319:8 *1718:A3 9.25014e-06
*RES
1 *2052:Q *327:6 10.2464 
2 *327:6 *1877:A1 19.3357 
3 *327:6 *1718:A3 22.8536 
*END

*D_NET *328 0.0016542
*CONN
*I *1724:A3 I *D sky130_fd_sc_hd__mux4_1
*I *1878:A1 I *D sky130_fd_sc_hd__mux2_1
*I *2053:Q O *D sky130_fd_sc_hd__dfxtp_1
*CAP
1 *1724:A3 0
2 *1878:A1 0.000258157
3 *2053:Q 0.000101306
4 *328:10 0.000359463
5 *1878:A1 *407:234 7.92879e-05
6 *1878:A1 *409:52 0.000389861
7 *1878:A1 *452:20 4.29086e-05
8 *1878:A1 *452:22 0
9 *1878:A1 *452:134 0.000112504
10 *328:10 *1742:S1 5.33005e-05
11 *328:10 *409:52 0.000140361
12 *328:10 *452:20 4.84667e-05
13 *1724:A2 *1878:A1 5.83304e-05
14 *1724:A2 *328:10 1.02504e-05
*RES
1 *2053:Q *328:10 16.2821 
2 *328:10 *1878:A1 20.9607 
3 *328:10 *1724:A3 13.8 
*END

*D_NET *329 0.00317512
*CONN
*I *1734:A3 I *D sky130_fd_sc_hd__mux4_1
*I *1879:A1 I *D sky130_fd_sc_hd__mux2_1
*I *2054:Q O *D sky130_fd_sc_hd__dfxtp_1
*CAP
1 *1734:A3 0.000401398
2 *1879:A1 0.000220957
3 *2054:Q 0.000119045
4 *329:10 0.000741401
5 *1734:A3 *2086:A 9.20581e-06
6 *1734:A3 *416:66 8.2395e-05
7 *1879:A1 *1770:A0 0.0004293
8 *1879:A1 *1879:A0 5.52238e-05
9 *1734:A1 *1734:A3 0.000195555
10 *1770:A1 *1734:A3 9.22948e-05
11 *1770:A1 *329:10 0.000202716
12 *1879:S *1879:A1 0.000239712
13 *1940:D *1734:A3 0.00012401
14 *1940:D *329:10 0.000171368
15 *177:18 *1879:A1 9.05414e-05
*RES
1 *2054:Q *329:10 16.5857 
2 *329:10 *1879:A1 20.4964 
3 *329:10 *1734:A3 21.0143 
*END

*D_NET *330 0.00229397
*CONN
*I *1742:A3 I *D sky130_fd_sc_hd__mux4_1
*I *1880:A1 I *D sky130_fd_sc_hd__mux2_1
*I *2055:Q O *D sky130_fd_sc_hd__dfxtp_1
*CAP
1 *1742:A3 0.00041633
2 *1880:A1 0.00020642
3 *2055:Q 0
4 *330:4 0.00062275
5 *1742:A3 *1780:A1 4.87953e-05
6 *1742:A3 *410:88 2.59355e-05
7 *1742:A3 *424:65 5.9565e-05
8 *1880:A1 *409:160 8.09057e-05
9 *1880:A1 *410:49 4.45163e-05
10 *1880:A1 *410:53 0.000121573
11 *1771:A1 *1742:A3 0.000100474
12 *1774:S *1742:A3 0.000155177
13 *1941:D *1742:A3 5.71472e-05
14 *163:73 *1742:A3 0.000168741
15 *164:34 *1880:A1 0.000185643
*RES
1 *2055:Q *330:4 9.3 
2 *330:4 *1880:A1 22.3179 
3 *330:4 *1742:A3 27.0857 
*END

*D_NET *331 0.00144267
*CONN
*I *1881:A1 I *D sky130_fd_sc_hd__mux2_1
*I *1629:A3 I *D sky130_fd_sc_hd__mux4_1
*I *2056:Q O *D sky130_fd_sc_hd__dfxtp_1
*CAP
1 *1881:A1 4.78177e-05
2 *1629:A3 0.000158132
3 *2056:Q 4.72333e-05
4 *331:6 0.000253183
5 *1629:A3 *408:394 5.74633e-05
6 *1881:A1 *454:28 0.000125731
7 *331:6 *408:394 3.81416e-06
8 *1629:A1 *1629:A3 0.000268396
9 *231:45 *1629:A3 0.000355164
10 *231:51 *1881:A1 9.25014e-06
11 *231:107 *1881:A1 0.000116481
*RES
1 *2056:Q *331:6 9.83571 
2 *331:6 *1629:A3 14.5143 
3 *331:6 *1881:A1 19.9429 
*END

*D_NET *332 0.00178507
*CONN
*I *1639:A3 I *D sky130_fd_sc_hd__mux4_1
*I *1882:A1 I *D sky130_fd_sc_hd__mux2_1
*I *2057:Q O *D sky130_fd_sc_hd__dfxtp_1
*CAP
1 *1639:A3 0.000372993
2 *1882:A1 0.000239957
3 *2057:Q 0
4 *332:4 0.00061295
5 *1639:A3 *454:28 0
6 *1882:A1 *455:102 0
7 *1639:A2 *1639:A3 5.83304e-05
8 *1882:S *1882:A1 0.000199698
9 *2069:A *1639:A3 9.74668e-05
10 *2069:A *1882:A1 6.81335e-05
11 *176:12 *1639:A3 0.00013554
*RES
1 *2057:Q *332:4 9.3 
2 *332:4 *1882:A1 22.6214 
3 *332:4 *1639:A3 24.9607 
*END

*D_NET *333 0.00188535
*CONN
*I *1645:A3 I *D sky130_fd_sc_hd__mux4_1
*I *1883:A1 I *D sky130_fd_sc_hd__mux2_1
*I *2058:Q O *D sky130_fd_sc_hd__dfxtp_1
*CAP
1 *1645:A3 0.000582031
2 *1883:A1 0.000105059
3 *2058:Q 0
4 *333:4 0.00068709
5 *1645:A3 *2073:A 5.75351e-05
6 *1645:A3 *407:61 3.57366e-05
7 *1883:A1 *436:48 0
8 *1883:A1 *457:29 0.000197991
9 *1645:A2 *1645:A3 1.66955e-05
10 *1646:B *1645:A3 0.000126639
11 *266:65 *1645:A3 7.65689e-05
*RES
1 *2058:Q *333:4 9.3 
2 *333:4 *1883:A1 20.8536 
3 *333:4 *1645:A3 18.0857 
*END

*D_NET *334 0.00158096
*CONN
*I *1655:A3 I *D sky130_fd_sc_hd__mux4_1
*I *1884:A1 I *D sky130_fd_sc_hd__mux2_1
*I *2059:Q O *D sky130_fd_sc_hd__dfxtp_1
*CAP
1 *1655:A3 0.000381624
2 *1884:A1 7.77732e-05
3 *2059:Q 0.000110403
4 *334:10 0.000569801
5 *1655:A3 *408:402 2.54101e-05
6 *1655:A3 *436:69 0.000161947
7 *1884:A1 *436:69 4.87854e-05
8 *334:10 *436:69 0
9 *1775:A1 *1655:A3 0
10 *1775:A1 *334:10 0.000195555
11 *231:55 *1655:A3 9.66073e-06
12 *310:10 *334:10 0
13 *318:10 *1655:A3 0
*RES
1 *2059:Q *334:10 20.8536 
2 *334:10 *1884:A1 10.2464 
3 *334:10 *1655:A3 23.7643 
*END

*D_NET *335 0.0026712
*CONN
*I *1869:A1 I *D sky130_fd_sc_hd__mux2_1
*I *1720:A1 I *D sky130_fd_sc_hd__mux4_1
*I *2044:Q O *D sky130_fd_sc_hd__dfxtp_1
*CAP
1 *1869:A1 0.0005965
2 *1720:A1 0
3 *2044:Q 0.000285311
4 *335:10 0.000881811
5 *1720:A0 *335:10 0.000250201
6 *1722:A0 *1869:A1 0
7 *1722:A0 *335:10 0
8 *272:25 *1869:A1 0.000128146
9 *272:25 *335:10 0.000194299
10 *272:35 *335:10 0.00017469
11 *277:92 *1869:A1 4.51611e-05
12 *277:102 *1869:A1 3.67142e-05
13 *279:10 *335:10 7.83659e-05
*RES
1 *2044:Q *335:10 20.3536 
2 *335:10 *1720:A1 13.8 
3 *335:10 *1869:A1 21.7286 
*END

*D_NET *336 0.00226558
*CONN
*I *1870:A1 I *D sky130_fd_sc_hd__mux2_1
*I *1728:A1 I *D sky130_fd_sc_hd__mux4_1
*I *2045:Q O *D sky130_fd_sc_hd__dfxtp_1
*CAP
1 *1870:A1 0.000220616
2 *1728:A1 0
3 *2045:Q 0.000754902
4 *336:10 0.000975518
5 *1870:A1 *1987:CLK 0
6 *336:10 *2045:CLK 1.29617e-05
7 *336:10 *344:8 1.44094e-05
8 *336:10 *430:67 2.59355e-05
9 *1728:A0 *1870:A1 3.17067e-05
10 *1825:A0 *1870:A1 3.69697e-05
11 *1870:S *1870:A1 1.07719e-05
12 *2045:D *336:10 8.31214e-05
13 *272:25 *1870:A1 5.90443e-06
14 *272:25 *336:10 9.27685e-05
*RES
1 *2045:Q *336:10 24.0679 
2 *336:10 *1728:A1 13.8 
3 *336:10 *1870:A1 17.1036 
*END

*D_NET *337 0.00132583
*CONN
*I *1871:A1 I *D sky130_fd_sc_hd__mux2_1
*I *1736:A1 I *D sky130_fd_sc_hd__mux4_1
*I *2046:Q O *D sky130_fd_sc_hd__dfxtp_1
*CAP
1 *1871:A1 6.37097e-05
2 *1736:A1 0.000333298
3 *2046:Q 0.000179456
4 *337:10 0.000576464
5 *1736:A1 *1736:S0 9.18348e-05
6 *337:10 *1736:A3 5.83233e-05
7 *337:10 *1736:S1 0
8 *337:10 *2064:CLK 2.27416e-05
9 *1736:A0 *337:10 0
10 *2046:D *1871:A1 0
11 *2046:D *337:10 0
*RES
1 *2046:Q *337:10 16.8893 
2 *337:10 *1736:A1 18.3536 
3 *337:10 *1871:A1 14.8357 
*END

*D_NET *338 0.00276039
*CONN
*I *1744:A1 I *D sky130_fd_sc_hd__mux4_1
*I *1872:A1 I *D sky130_fd_sc_hd__mux2_1
*I *2047:Q O *D sky130_fd_sc_hd__dfxtp_1
*CAP
1 *1744:A1 0
2 *1872:A1 0.000300995
3 *2047:Q 0.000633801
4 *338:10 0.000934796
5 *1872:A1 *1827:A1 0.000106467
6 *1872:A1 *431:23 0.000198698
7 *1872:A1 *431:34 0.000161411
8 *1872:A1 *454:89 1.58163e-05
9 *338:10 *2047:CLK 6.05161e-06
10 *338:10 *431:34 0.000148182
11 *1746:A1 *1872:A1 0
12 *1989:D *1872:A1 5.10822e-05
13 *2047:D *1872:A1 0.000105053
14 *2047:D *338:10 4.92465e-05
15 *277:18 *1872:A1 4.87953e-05
*RES
1 *2047:Q *338:10 22.0321 
2 *338:10 *1872:A1 21.4786 
3 *338:10 *1744:A1 13.8 
*END

*D_NET *339 0.00166854
*CONN
*I *1633:A1 I *D sky130_fd_sc_hd__mux4_1
*I *1873:A1 I *D sky130_fd_sc_hd__mux2_1
*I *2048:Q O *D sky130_fd_sc_hd__dfxtp_1
*CAP
1 *1633:A1 0.000293911
2 *1873:A1 0.00025388
3 *2048:Q 0
4 *339:6 0.000547791
5 *1873:A1 *456:18 0.000188586
6 *1633:A0 *1633:A1 5.52302e-05
7 *1828:A0 *1633:A1 2.31791e-05
8 *1873:S *1873:A1 5.33334e-05
9 *1890:S *1873:A1 3.48705e-05
10 *1990:D *1633:A1 8.96049e-05
11 *2048:D *1873:A1 0
12 *283:10 *1633:A1 0.000128154
*RES
1 *2048:Q *339:6 13.8 
2 *339:6 *1873:A1 19.3357 
3 *339:6 *1633:A1 19.9429 
*END

*D_NET *340 0.00197727
*CONN
*I *1641:A1 I *D sky130_fd_sc_hd__mux4_1
*I *1874:A1 I *D sky130_fd_sc_hd__mux2_1
*I *2049:Q O *D sky130_fd_sc_hd__dfxtp_1
*CAP
1 *1641:A1 4.70027e-05
2 *1874:A1 0.000248183
3 *2049:Q 0.000301572
4 *340:8 0.000596758
5 *1874:A1 *1829:A1 0.000107787
6 *340:8 *1829:A1 2.22999e-05
7 *1641:A0 *1641:A1 5.97719e-05
8 *1641:A0 *1874:A1 4.58096e-05
9 *1828:S *1641:A1 0.000125731
10 *1828:S *1874:A1 4.80729e-05
11 *1873:S *1874:A1 1.55885e-05
12 *2049:D *340:8 1.40306e-05
13 *272:35 *1874:A1 0.00027438
14 *277:102 *1874:A1 6.05161e-06
15 *284:10 *1874:A1 6.42338e-05
*RES
1 *2049:Q *340:8 17.2107 
2 *340:8 *1874:A1 20.5321 
3 *340:8 *1641:A1 15.4429 
*END

*D_NET *341 0.00178579
*CONN
*I *1875:A1 I *D sky130_fd_sc_hd__mux2_1
*I *1649:A1 I *D sky130_fd_sc_hd__mux4_1
*I *2050:Q O *D sky130_fd_sc_hd__dfxtp_1
*CAP
1 *1875:A1 0.000273149
2 *1649:A1 0.000141591
3 *2050:Q 0
4 *341:6 0.000414739
5 *1649:A1 *1649:A2 3.14163e-05
6 *1649:A1 *1857:A1 0.000137983
7 *1649:A1 *349:8 0.000131472
8 *1649:A1 *357:10 3.17148e-05
9 *1649:A1 *416:22 0.000116174
10 *1875:A1 *1875:A0 0.000393949
11 *1875:A1 *349:8 3.57844e-05
12 *1875:A1 *416:22 5.33882e-05
13 *1875:S *1875:A1 2.44318e-05
14 *2066:D *1875:A1 0
*RES
1 *2050:Q *341:6 13.8 
2 *341:6 *1649:A1 18.3179 
3 *341:6 *1875:A1 19.3714 
*END

*D_NET *342 0.00143219
*CONN
*I *1876:A1 I *D sky130_fd_sc_hd__mux2_1
*I *1657:A1 I *D sky130_fd_sc_hd__mux4_1
*I *2051:Q O *D sky130_fd_sc_hd__dfxtp_1
*CAP
1 *1876:A1 0.000187012
2 *1657:A1 0.000178856
3 *2051:Q 0
4 *342:4 0.000365868
5 *1657:A1 *1893:A0 0.00013059
6 *1657:A1 *2080:A 2.79421e-05
7 *1657:A1 *436:92 0.000247771
8 *1876:A1 *1657:A2 8.27184e-06
9 *1876:A1 *2080:A 2.95726e-05
10 *1876:A1 *407:295 9.25014e-06
11 *1876:A1 *407:373 0.000118903
12 *1871:S *1876:A1 0.000128154
13 *1888:S *1657:A1 0
*RES
1 *2051:Q *342:4 9.3 
2 *342:4 *1657:A1 22.4071 
3 *342:4 *1876:A1 21.7107 
*END

*D_NET *343 0.00246141
*CONN
*I *1720:A2 I *D sky130_fd_sc_hd__mux4_1
*I *1886:A0 I *D sky130_fd_sc_hd__mux2_1
*I *2060:Q O *D sky130_fd_sc_hd__dfxtp_1
*CAP
1 *1720:A2 0.000445666
2 *1886:A0 0.000257427
3 *2060:Q 0
4 *343:4 0.000703093
5 *1720:A2 *1824:A1 1.32552e-05
6 *1720:A2 *1851:A1 9.75337e-06
7 *1720:A2 *2060:CLK 1.58163e-05
8 *1720:A2 *351:10 0.00012116
9 *1720:A2 *430:14 0.00025007
10 *1720:A2 *430:16 1.58163e-05
11 *1886:A0 *451:29 0.000258447
12 *1886:A0 *451:44 0.00013059
13 *1722:A0 *1720:A2 1.59935e-05
14 *272:35 *1886:A0 5.19842e-06
15 *277:102 *1886:A0 0.000196269
16 *278:110 *1886:A0 2.28499e-05
*RES
1 *2060:Q *343:4 9.3 
2 *343:4 *1886:A0 23.4429 
3 *343:4 *1720:A2 24.9161 
*END

*D_NET *344 0.00218979
*CONN
*I *1728:A2 I *D sky130_fd_sc_hd__mux4_1
*I *1887:A0 I *D sky130_fd_sc_hd__mux2_1
*I *2061:Q O *D sky130_fd_sc_hd__dfxtp_1
*CAP
1 *1728:A2 7.66369e-05
2 *1887:A0 0.000325611
3 *2061:Q 0.000240069
4 *344:8 0.000642316
5 *1728:A2 *1728:S0 1.59935e-05
6 *1887:A0 *1852:A0 0.000305285
7 *1887:A0 *452:89 5.71472e-05
8 *344:8 *430:67 2.79421e-05
9 *275:16 *1728:A2 0.00012401
10 *275:16 *1887:A0 0.000198691
11 *277:92 *1728:A2 5.74562e-05
12 *277:92 *1887:A0 0.000104227
13 *336:10 *344:8 1.44094e-05
*RES
1 *2061:Q *344:8 16.3893 
2 *344:8 *1887:A0 19.7643 
3 *344:8 *1728:A2 15.7732 
*END

*D_NET *345 0.00178819
*CONN
*I *1888:A0 I *D sky130_fd_sc_hd__mux2_1
*I *1736:A2 I *D sky130_fd_sc_hd__mux4_1
*I *2062:Q O *D sky130_fd_sc_hd__dfxtp_1
*CAP
1 *1888:A0 0.000157932
2 *1736:A2 0.000250814
3 *2062:Q 0.000154717
4 *345:8 0.000563463
5 *1736:A2 *1736:A3 0.000128723
6 *1888:A0 *1871:A0 2.89016e-05
7 *1888:A0 *353:12 3.79104e-05
8 *1888:A0 *453:33 1.74352e-05
9 *345:8 *1988:CLK 0
10 *345:8 *353:12 3.5707e-05
11 *1738:A0 *1736:A2 5.71472e-05
12 *1738:A0 *1888:A0 4.75428e-05
13 *1853:S *1736:A2 5.33005e-05
14 *1853:S *1888:A0 3.17148e-05
15 *1853:S *345:8 0.000222878
16 *2062:D *1888:A0 0
17 *2062:D *345:8 0
*RES
1 *2062:Q *345:8 17.5679 
2 *345:8 *1736:A2 18.8848 
3 *345:8 *1888:A0 16.9964 
*END

*D_NET *346 0.00237646
*CONN
*I *1744:A2 I *D sky130_fd_sc_hd__mux4_1
*I *1889:A0 I *D sky130_fd_sc_hd__mux2_1
*I *2063:Q O *D sky130_fd_sc_hd__dfxtp_1
*CAP
1 *1744:A2 0.000234938
2 *1889:A0 0.000175814
3 *2063:Q 2.23854e-05
4 *346:6 0.000433138
5 *1744:A2 *1744:A3 3.28686e-05
6 *1744:A2 *1744:S1 5.83304e-05
7 *1744:A2 *408:239 9.91086e-05
8 *1889:A0 *454:34 0.000244015
9 *1644:B1 *1744:A2 0.000148903
10 *1889:S *1889:A0 7.69776e-06
11 *176:12 *1889:A0 0
12 *275:111 *1889:A0 0
13 *275:121 *1889:A0 0.000184745
14 *277:30 *1889:A0 2.15245e-05
15 *278:22 *1744:A2 0.000385487
16 *278:22 *1889:A0 0.000231415
17 *282:14 *1744:A2 9.60875e-05
*RES
1 *2063:Q *346:6 9.72857 
2 *346:6 *1889:A0 23.6393 
3 *346:6 *1744:A2 24.3982 
*END

*D_NET *347 0.00235495
*CONN
*I *1633:A2 I *D sky130_fd_sc_hd__mux4_1
*I *1890:A0 I *D sky130_fd_sc_hd__mux2_1
*I *2064:Q O *D sky130_fd_sc_hd__dfxtp_1
*CAP
1 *1633:A2 0.000457008
2 *1890:A0 0.000215419
3 *2064:Q 0.000218282
4 *347:6 0.000890709
5 *1633:A2 *1633:A3 1.05729e-05
6 *1633:A2 *2024:CLK 0.000123902
7 *1890:A0 *355:10 3.48139e-05
8 *1890:A0 *426:36 1.69115e-05
9 *1890:A0 *455:20 0.000173597
10 *1853:S *1633:A2 3.06878e-06
11 *1853:S *347:6 1.6539e-05
12 *1855:S *1890:A0 0.000131297
13 *1990:D *1633:A2 0
14 *2048:D *1890:A0 0
15 *2064:D *347:6 2.72859e-05
16 *174:14 *1633:A2 2.94103e-05
17 *275:57 *1633:A2 6.13757e-06
*RES
1 *2064:Q *347:6 11.8893 
2 *347:6 *1890:A0 24.1929 
3 *347:6 *1633:A2 24.5054 
*END

*D_NET *348 0.00198025
*CONN
*I *1641:A2 I *D sky130_fd_sc_hd__mux4_1
*I *1891:A0 I *D sky130_fd_sc_hd__mux2_1
*I *2065:Q O *D sky130_fd_sc_hd__dfxtp_1
*CAP
1 *1641:A2 0.000282633
2 *1891:A0 0.000217776
3 *2065:Q 0.000199564
4 *348:10 0.000699973
5 *1641:A2 *1641:A3 9.25014e-06
6 *1641:A2 *1641:S1 3.17067e-05
7 *1891:A0 *1891:A1 2.27416e-05
8 *348:10 *1641:A3 0
9 *348:10 *1641:S1 0
10 *348:10 *1856:A1 0.000195547
11 *348:10 *429:46 0
12 *1856:S *348:10 3.92757e-05
13 *1891:S *1891:A0 9.99644e-06
14 *181:14 *1641:A2 2.42493e-05
15 *181:14 *1891:A0 5.39166e-06
16 *275:44 *1641:A2 0.000121662
17 *275:44 *348:10 0.000120485
*RES
1 *2065:Q *348:10 23.2821 
2 *348:10 *1891:A0 11.8893 
3 *348:10 *1641:A2 22.6795 
*END

*D_NET *349 0.00215874
*CONN
*I *1649:A2 I *D sky130_fd_sc_hd__mux4_1
*I *1892:A0 I *D sky130_fd_sc_hd__mux2_1
*I *2066:Q O *D sky130_fd_sc_hd__dfxtp_1
*CAP
1 *1649:A2 0.000398062
2 *1892:A0 0.000132945
3 *2066:Q 0.000190554
4 *349:8 0.000721562
5 *1649:A2 *1649:A3 5.63762e-05
6 *1649:A2 *1649:S0 1.58163e-05
7 *1649:A2 *1649:S1 1.69115e-05
8 *1649:A2 *1857:A1 9.99644e-06
9 *1649:A2 *408:249 2.8266e-06
10 *1892:A0 *1892:A1 2.27416e-05
11 *349:8 *357:10 4.97121e-06
12 *1649:A0 *1892:A0 6.73939e-05
13 *1649:A0 *349:8 5.83304e-05
14 *1649:A1 *1649:A2 3.14163e-05
15 *1649:A1 *349:8 0.000131472
16 *1651:A1 *1649:A2 6.56602e-06
17 *1830:A0 *1892:A0 9.25014e-06
18 *1857:S *1892:A0 7.83659e-05
19 *1857:S *349:8 7.29667e-05
20 *1875:A1 *349:8 3.57844e-05
21 *1875:S *1649:A2 3.17163e-05
22 *1892:S *1892:A0 7.48301e-06
23 *2066:D *349:8 0
24 *275:121 *1892:A0 5.52302e-05
*RES
1 *2066:Q *349:8 18.7821 
2 *349:8 *1892:A0 16.1929 
3 *349:8 *1649:A2 28.0009 
*END

*D_NET *350 0.00204711
*CONN
*I *1657:A2 I *D sky130_fd_sc_hd__mux4_1
*I *1893:A0 I *D sky130_fd_sc_hd__mux2_1
*I *2067:Q O *D sky130_fd_sc_hd__dfxtp_1
*CAP
1 *1657:A2 0.000465459
2 *1893:A0 0.000234693
3 *2067:Q 0
4 *350:4 0.000700152
5 *1657:A2 *2080:A 9.3111e-05
6 *1657:A2 *407:293 1.86687e-05
7 *1657:A2 *407:295 0
8 *1657:A2 *416:45 0.000126439
9 *1893:A0 *1893:A1 5.52238e-05
10 *1893:A0 *2080:A 2.59355e-05
11 *1893:A0 *436:92 8.66324e-05
12 *1657:A1 *1893:A0 0.00013059
13 *1659:A1 *1657:A2 1.00442e-05
14 *1876:A1 *1657:A2 8.27184e-06
15 *1888:S *1893:A0 6.05161e-06
16 *1893:S *1893:A0 5.03772e-05
17 *2051:D *1657:A2 6.05161e-06
18 *2067:D *1893:A0 0
19 *278:41 *1893:A0 2.94103e-05
*RES
1 *2067:Q *350:4 9.3 
2 *350:4 *1893:A0 23.55 
3 *350:4 *1657:A2 24.8223 
*END

*D_NET *351 0.00222537
*CONN
*I *1851:A1 I *D sky130_fd_sc_hd__mux2_1
*I *1720:A3 I *D sky130_fd_sc_hd__mux4_1
*I *2019:Q O *D sky130_fd_sc_hd__dfxtp_1
*CAP
1 *1851:A1 0.000505302
2 *1720:A3 0
3 *2019:Q 0.000206414
4 *351:10 0.000711716
5 *1851:A1 *1851:A0 0.000137983
6 *1851:A1 *430:14 2.58997e-05
7 *351:10 *1824:A1 5.70551e-05
8 *351:10 *430:14 1.32511e-05
9 *1720:A2 *1851:A1 9.75337e-06
10 *1720:A2 *351:10 0.00012116
11 *1722:A0 *1851:A1 6.44414e-05
12 *1722:A0 *351:10 3.99771e-05
13 *2019:D *1851:A1 2.60984e-05
14 *275:34 *1851:A1 0.000306317
*RES
1 *2019:Q *351:10 17.5143 
2 *351:10 *1720:A3 13.8 
3 *351:10 *1851:A1 22.1929 
*END

*D_NET *352 0.00105984
*CONN
*I *1728:A3 I *D sky130_fd_sc_hd__mux4_1
*I *1852:A1 I *D sky130_fd_sc_hd__mux2_1
*I *2020:Q O *D sky130_fd_sc_hd__dfxtp_1
*CAP
1 *1728:A3 0
2 *1852:A1 0.00012708
3 *2020:Q 8.63763e-05
4 *352:10 0.000213457
5 *352:10 *1870:A0 2.89114e-05
6 *2045:D *1852:A1 0.000122942
7 *2045:D *352:10 6.74815e-05
8 *272:25 *1852:A1 0
9 *275:16 *1852:A1 0.000344203
10 *275:16 *352:10 6.93856e-05
*RES
1 *2020:Q *352:10 15.9786 
2 *352:10 *1852:A1 18.175 
3 *352:10 *1728:A3 13.8 
*END

*D_NET *353 0.0017179
*CONN
*I *1736:A3 I *D sky130_fd_sc_hd__mux4_1
*I *1853:A1 I *D sky130_fd_sc_hd__mux2_1
*I *2021:Q O *D sky130_fd_sc_hd__dfxtp_1
*CAP
1 *1736:A3 0.000522332
2 *1853:A1 0
3 *2021:Q 0.000118205
4 *353:12 0.000640537
5 *1736:A3 *1736:S1 4.1331e-06
6 *353:12 *419:63 2.27416e-05
7 *353:12 *419:70 5.30637e-06
8 *1736:A2 *1736:A3 0.000128723
9 *1738:A0 *1736:A3 1.92789e-05
10 *1853:S *1736:A3 4.884e-05
11 *1888:A0 *353:12 3.79104e-05
12 *2046:D *1736:A3 0
13 *2062:D *353:12 7.58571e-05
14 *337:10 *1736:A3 5.83233e-05
15 *345:8 *353:12 3.5707e-05
*RES
1 *2021:Q *353:12 21.3893 
2 *353:12 *1853:A1 9.3 
3 *353:12 *1736:A3 25.3179 
*END

*D_NET *354 0.00138626
*CONN
*I *1854:A1 I *D sky130_fd_sc_hd__mux2_1
*I *1744:A3 I *D sky130_fd_sc_hd__mux4_1
*I *2022:Q O *D sky130_fd_sc_hd__dfxtp_1
*CAP
1 *1854:A1 0.000139394
2 *1744:A3 0.0002152
3 *2022:Q 0
4 *354:4 0.000354594
5 *1744:A3 *408:243 9.76946e-05
6 *1744:A3 *408:247 3.14048e-05
7 *1854:A1 *454:34 0
8 *1744:A2 *1744:A3 3.28686e-05
9 *1746:A0 *1744:A3 0.000232188
10 *1854:S *1854:A1 0.000129868
11 *176:12 *1854:A1 0.000153047
*RES
1 *2022:Q *354:4 9.3 
2 *354:4 *1744:A3 14.675 
3 *354:4 *1854:A1 21.6036 
*END

*D_NET *355 0.00212265
*CONN
*I *1633:A3 I *D sky130_fd_sc_hd__mux4_1
*I *1855:A1 I *D sky130_fd_sc_hd__mux2_1
*I *2023:Q O *D sky130_fd_sc_hd__dfxtp_1
*CAP
1 *1633:A3 0.000377869
2 *1855:A1 5.51633e-05
3 *2023:Q 0.000111778
4 *355:10 0.00054481
5 *1633:A3 *1633:S0 3.17067e-05
6 *1633:A3 *1736:S1 0.000123104
7 *1633:A3 *408:158 2.19684e-05
8 *1633:A3 *455:31 6.05161e-06
9 *1855:A1 *1736:S0 1.95646e-05
10 *1855:A1 *1736:S1 3.97677e-05
11 *1855:A1 *455:31 9.7659e-05
12 *355:10 *1736:S0 1.08359e-05
13 *355:10 *426:32 0.000185297
14 *355:10 *426:36 0.000152333
15 *1633:A2 *1633:A3 1.05729e-05
16 *1855:S *1855:A1 5.33005e-05
17 *1855:S *355:10 0.000246057
18 *1890:A0 *355:10 3.48139e-05
*RES
1 *2023:Q *355:10 22.675 
2 *355:10 *1855:A1 11.0679 
3 *355:10 *1633:A3 24.3714 
*END

*D_NET *356 0.00240342
*CONN
*I *1641:A3 I *D sky130_fd_sc_hd__mux4_1
*I *1856:A1 I *D sky130_fd_sc_hd__mux2_1
*I *2024:Q O *D sky130_fd_sc_hd__dfxtp_1
*CAP
1 *1641:A3 0.000434768
2 *1856:A1 0.000274296
3 *2024:Q 0.000142533
4 *356:6 0.000851597
5 *1641:A3 *1991:CLK 7.1271e-05
6 *1856:A1 *429:46 2.97756e-05
7 *1856:A1 *456:195 2.27416e-05
8 *1856:A1 *456:202 2.27416e-05
9 *356:6 *1991:CLK 5.06983e-05
10 *1641:A2 *1641:A3 9.25014e-06
11 *1856:S *1856:A1 8.54718e-05
12 *1873:S *1856:A1 9.90431e-05
13 *1890:S *1856:A1 0
14 *2024:D *1856:A1 0
15 *2024:D *356:6 3.69047e-06
16 *2049:D *1641:A3 6.4549e-05
17 *181:14 *1641:A3 4.25619e-05
18 *275:44 *1641:A3 0
19 *275:57 *356:6 2.88018e-06
20 *348:10 *1641:A3 0
21 *348:10 *1856:A1 0.000195547
*RES
1 *2024:Q *356:6 11.0679 
2 *356:6 *1856:A1 24.8357 
3 *356:6 *1641:A3 24.4786 
*END

*D_NET *357 0.00219214
*CONN
*I *1649:A3 I *D sky130_fd_sc_hd__mux4_1
*I *1857:A1 I *D sky130_fd_sc_hd__mux2_1
*I *2025:Q O *D sky130_fd_sc_hd__dfxtp_1
*CAP
1 *1649:A3 0.000111547
2 *1857:A1 0.000112517
3 *2025:Q 0.000133461
4 *357:10 0.000357525
5 *1649:A3 *1649:S0 5.33005e-05
6 *1857:A1 *457:50 1.40306e-05
7 *357:10 *416:22 0.000364953
8 *1649:A0 *357:10 6.42242e-05
9 *1649:A1 *1857:A1 0.000137983
10 *1649:A1 *357:10 3.17148e-05
11 *1649:A2 *1649:A3 5.63762e-05
12 *1649:A2 *1857:A1 9.99644e-06
13 *1651:A1 *1649:A3 0.000222147
14 *1651:A1 *1857:A1 0.000356022
15 *1830:A0 *357:10 0.000104227
16 *1857:S *1857:A1 5.71472e-05
17 *349:8 *357:10 4.97121e-06
*RES
1 *2025:Q *357:10 22.9786 
2 *357:10 *1857:A1 13.1393 
3 *357:10 *1649:A3 12.4429 
*END

*D_NET *358 0.00144702
*CONN
*I *1657:A3 I *D sky130_fd_sc_hd__mux4_1
*I *1858:A1 I *D sky130_fd_sc_hd__mux2_1
*I *2026:Q O *D sky130_fd_sc_hd__dfxtp_1
*CAP
1 *1657:A3 0.000192829
2 *1858:A1 0.000100383
3 *2026:Q 0
4 *358:6 0.000293212
5 *1858:A1 *1831:A1 5.52302e-05
6 *1657:A0 *1657:A3 0.000153056
7 *1657:A0 *1858:A1 0.000119618
8 *1659:A1 *1657:A3 0.000135933
9 *1831:A0 *1858:A1 7.83659e-05
10 *1858:S *1657:A3 0.00011197
11 *1858:S *1858:A1 0.000197984
12 *1871:S *1657:A3 8.44271e-06
*RES
1 *2026:Q *358:6 13.8 
2 *358:6 *1858:A1 16.8893 
3 *358:6 *1657:A3 18.4429 
*END

*D_NET *359 0.00248248
*CONN
*I *1721:A0 I *D sky130_fd_sc_hd__mux4_1
*I *1860:A0 I *D sky130_fd_sc_hd__mux2_1
*I *2036:Q O *D sky130_fd_sc_hd__dfxtp_1
*CAP
1 *1721:A0 0.000313098
2 *1860:A0 0.000107925
3 *2036:Q 0.000243803
4 *359:10 0.000664826
5 *1721:A0 *1721:A2 2.3541e-05
6 *1721:A0 *1721:S0 4.08637e-05
7 *1721:A0 *2082:A 0.000137354
8 *1721:A0 *407:449 5.71472e-05
9 *1721:A0 *407:517 0.000129515
10 *1860:A0 *1722:S 0.000116545
11 *359:10 *1722:S 2.8266e-06
12 *359:10 *430:8 0
13 *2036:D *1860:A0 0.000309059
14 *2036:D *359:10 0.000180244
15 *239:8 *1721:A0 0.000155729
*RES
1 *2036:Q *359:10 17.5143 
2 *359:10 *1860:A0 17.8714 
3 *359:10 *1721:A0 20.6214 
*END

*D_NET *360 0.00158747
*CONN
*I *1729:A0 I *D sky130_fd_sc_hd__mux4_1
*I *1861:A0 I *D sky130_fd_sc_hd__mux2_1
*I *2037:Q O *D sky130_fd_sc_hd__dfxtp_1
*CAP
1 *1729:A0 0.000125391
2 *1861:A0 0.00023369
3 *2037:Q 0
4 *360:6 0.000359081
5 *1729:A0 *1729:A2 0
6 *1729:A0 *368:10 6.19181e-05
7 *1861:A0 *1729:A2 0.000318101
8 *1861:A0 *1843:A1 4.58976e-05
9 *1861:A0 *1861:A1 5.33005e-05
10 *1861:A0 *376:10 5.71472e-05
11 *1843:S *1861:A0 0.000116029
12 *1861:S *1861:A0 0
13 *2004:D *1729:A0 0.000150625
14 *276:22 *1729:A0 0
15 *276:22 *1861:A0 0
16 *276:35 *1861:A0 6.62898e-05
17 *276:117 *1861:A0 0
*RES
1 *2037:Q *360:6 13.8 
2 *360:6 *1861:A0 19.9786 
3 *360:6 *1729:A0 16.9607 
*END

*D_NET *361 0.00317447
*CONN
*I *1862:A0 I *D sky130_fd_sc_hd__mux2_1
*I *1737:A0 I *D sky130_fd_sc_hd__mux4_1
*I *2038:Q O *D sky130_fd_sc_hd__dfxtp_1
*CAP
1 *1862:A0 0.000166353
2 *1737:A0 0.000420136
3 *2038:Q 0.000319641
4 *361:10 0.00090613
5 *1737:A0 *1737:A1 2.2351e-05
6 *1737:A0 *1737:A2 6.98553e-06
7 *1737:A0 *1737:A3 0.000155554
8 *1737:A0 *1737:S0 5.65955e-05
9 *1737:A0 *1737:S1 2.59355e-05
10 *1737:A0 *385:8 5.48674e-05
11 *1862:A0 *1844:A0 7.67045e-05
12 *1862:A0 *453:79 2.59355e-05
13 *1862:A0 *453:90 2.28598e-05
14 *1835:S *1862:A0 0.000462842
15 *1835:S *361:10 7.6644e-05
16 *1862:S *1862:A0 3.51442e-05
17 *2005:D *1862:A0 0.000214349
18 *2005:D *361:10 7.6644e-05
19 *274:55 *1862:A0 4.87953e-05
*RES
1 *2038:Q *361:10 17.8357 
2 *361:10 *1737:A0 19.8357 
3 *361:10 *1862:A0 20.6393 
*END

*D_NET *362 0.00160183
*CONN
*I *1745:A0 I *D sky130_fd_sc_hd__mux4_1
*I *1863:A0 I *D sky130_fd_sc_hd__mux2_1
*I *2039:Q O *D sky130_fd_sc_hd__dfxtp_1
*CAP
1 *1745:A0 5.72686e-05
2 *1863:A0 0.00012608
3 *2039:Q 0.000219832
4 *362:10 0.000403181
5 *1745:A0 *370:10 0.000128154
6 *1745:A0 *456:84 0.000166983
7 *362:10 *1845:A1 0
8 *362:10 *386:14 0.000179745
9 *362:10 *454:53 0
10 *362:10 *456:84 0.000153047
11 *1863:S *1863:A0 5.76599e-05
12 *2006:D *1745:A0 1.08359e-05
13 *2006:D *1863:A0 9.90431e-05
*RES
1 *2039:Q *362:10 17.5143 
2 *362:10 *1863:A0 16.3893 
3 *362:10 *1745:A0 16.05 
*END

*D_NET *363 0.00218554
*CONN
*I *1864:A0 I *D sky130_fd_sc_hd__mux2_1
*I *1634:A0 I *D sky130_fd_sc_hd__mux4_1
*I *2040:Q O *D sky130_fd_sc_hd__dfxtp_1
*CAP
1 *1864:A0 0.0002078
2 *1634:A0 0.000281977
3 *2040:Q 0.000291476
4 *363:12 0.000781254
5 *1634:A0 *1634:A3 5.32724e-05
6 *1634:A0 *1634:S0 4.35421e-05
7 *1864:A0 *426:32 7.83366e-05
8 *1864:A0 *455:55 0.000108296
9 *363:12 *1634:A2 1.40749e-05
10 *363:12 *1634:A3 1.92905e-05
11 *363:12 *1634:S1 5.83304e-05
12 *2016:D *363:12 0
13 *174:14 *1864:A0 0.000160914
14 *174:14 *363:12 7.4826e-05
15 *274:53 *363:12 1.21508e-05
*RES
1 *2040:Q *363:12 23.0321 
2 *363:12 *1634:A0 13.0321 
3 *363:12 *1864:A0 24.1929 
*END

*D_NET *364 0.00136897
*CONN
*I *1642:A0 I *D sky130_fd_sc_hd__mux4_1
*I *1865:A0 I *D sky130_fd_sc_hd__mux2_1
*I *2041:Q O *D sky130_fd_sc_hd__dfxtp_1
*CAP
1 *1642:A0 0.000116638
2 *1865:A0 0.000156507
3 *2041:Q 0
4 *364:6 0.000273145
5 *1642:A0 *1642:A1 5.33005e-05
6 *1642:A0 *1970:CLK 5.83233e-05
7 *1642:A0 *429:12 0.000143804
8 *1642:A0 *429:73 4.80729e-05
9 *1865:A0 *1865:A1 5.71472e-05
10 *1865:A0 *1970:CLK 0.000127439
11 *1643:A1 *1642:A0 6.26673e-05
12 *1864:S *1865:A0 1.76135e-05
13 *181:14 *1865:A0 7.80714e-06
14 *269:26 *1865:A0 8.3722e-05
15 *276:117 *1642:A0 9.85699e-05
16 *276:117 *1865:A0 6.42145e-05
*RES
1 *2041:Q *364:6 13.8 
2 *364:6 *1865:A0 17.925 
3 *364:6 *1642:A0 17.4964 
*END

*D_NET *365 0.00335624
*CONN
*I *1650:A0 I *D sky130_fd_sc_hd__mux4_1
*I *1866:A0 I *D sky130_fd_sc_hd__mux2_1
*I *2042:Q O *D sky130_fd_sc_hd__dfxtp_1
*CAP
1 *1650:A0 0.000620657
2 *1866:A0 0.00034247
3 *2042:Q 7.86267e-05
4 *365:8 0.00104175
5 *1650:A0 *1650:A2 8.50551e-05
6 *1650:A0 *1650:A3 7.78277e-05
7 *1650:A0 *1839:A1 4.34682e-05
8 *1866:A0 *1866:A1 9.33439e-05
9 *1866:A0 *2096:A 9.60939e-05
10 *1866:A0 *427:21 0.000151333
11 *1866:A0 *427:43 0.000214342
12 *365:8 *427:43 5.33005e-05
13 *1839:S *1650:A0 6.81083e-05
14 *1839:S *1866:A0 0.000389861
*RES
1 *2042:Q *365:8 14.7464 
2 *365:8 *1866:A0 21.7821 
3 *365:8 *1650:A0 22.2643 
*END

*D_NET *366 0.00207915
*CONN
*I *1867:A0 I *D sky130_fd_sc_hd__mux2_1
*I *1658:A0 I *D sky130_fd_sc_hd__mux4_1
*I *2043:Q O *D sky130_fd_sc_hd__dfxtp_1
*CAP
1 *1867:A0 0.000500318
2 *1658:A0 0.000276815
3 *2043:Q 0
4 *366:4 0.000777133
5 *1658:A0 *436:133 5.89863e-05
6 *1867:A0 *407:311 0.000196497
7 *1867:A0 *427:94 7.83587e-05
8 *1867:A0 *436:133 1.23053e-05
9 *1866:S *1867:A0 7.83587e-05
10 *2043:D *1867:A0 0.00010038
11 *269:141 *1658:A0 0
*RES
1 *2043:Q *366:4 9.3 
2 *366:4 *1658:A0 22.8179 
3 *366:4 *1867:A0 25.2107 
*END

*D_NET *367 0.00203679
*CONN
*I *1833:A1 I *D sky130_fd_sc_hd__mux2_1
*I *1721:A1 I *D sky130_fd_sc_hd__mux4_1
*I *2003:Q O *D sky130_fd_sc_hd__dfxtp_1
*CAP
1 *1833:A1 8.17326e-05
2 *1721:A1 0.000301945
3 *2003:Q 0.00016151
4 *367:6 0.000545188
5 *1721:A1 *1643:S 0.000225616
6 *1721:A1 *407:439 0.000107431
7 *1721:A1 *407:523 0
8 *1833:A1 *407:439 0.000134748
9 *367:6 *1643:S 0.000219711
10 *1833:S *1833:A1 1.02504e-05
11 *269:12 *1721:A1 0.000119718
12 *278:102 *1833:A1 0.000128941
*RES
1 *2003:Q *367:6 11.4786 
2 *367:6 *1721:A1 24.55 
3 *367:6 *1833:A1 21.4607 
*END

*D_NET *368 0.00123983
*CONN
*I *1834:A1 I *D sky130_fd_sc_hd__mux2_1
*I *1729:A1 I *D sky130_fd_sc_hd__mux4_1
*I *2004:Q O *D sky130_fd_sc_hd__dfxtp_1
*CAP
1 *1834:A1 0.000256542
2 *1729:A1 0
3 *2004:Q 0.000142578
4 *368:10 0.00039912
5 *1834:A1 *1834:A0 5.71472e-05
6 *1834:A1 *384:12 5.33433e-05
7 *1834:A1 *407:265 0
8 *1834:A1 *431:12 0.000163529
9 *368:10 *384:12 0
10 *368:10 *407:285 0
11 *1729:A0 *368:10 6.19181e-05
12 *1971:D *1834:A1 0
13 *2004:D *1834:A1 3.93893e-05
14 *2004:D *368:10 6.62608e-05
*RES
1 *2004:Q *368:10 16.2821 
2 *368:10 *1729:A1 13.8 
3 *368:10 *1834:A1 19.4607 
*END

*D_NET *369 0.00258911
*CONN
*I *1737:A1 I *D sky130_fd_sc_hd__mux4_1
*I *1835:A1 I *D sky130_fd_sc_hd__mux2_1
*I *2005:Q O *D sky130_fd_sc_hd__dfxtp_1
*CAP
1 *1737:A1 4.65676e-05
2 *1835:A1 0.000301475
3 *2005:Q 0.000148708
4 *369:10 0.00049675
5 *1737:A1 *1737:A3 5.33005e-05
6 *1737:A1 *385:8 2.95944e-05
7 *1835:A1 *1737:A3 5.41794e-05
8 *1835:A1 *1807:A1 0.000128146
9 *1835:A1 *377:10 0.000315564
10 *1835:A1 *419:14 4.40685e-05
11 *1835:A1 *453:57 0.000488281
12 *1835:A1 *453:70 0.000207047
13 *369:10 *1737:S0 2.89016e-05
14 *369:10 *453:70 0.00012401
15 *1737:A0 *1737:A1 2.2351e-05
16 *269:141 *1737:A1 0.000100163
*RES
1 *2005:Q *369:10 16.3893 
2 *369:10 *1835:A1 22.9071 
3 *369:10 *1737:A1 15.5679 
*END

*D_NET *370 0.00168295
*CONN
*I *1836:A1 I *D sky130_fd_sc_hd__mux2_1
*I *1745:A1 I *D sky130_fd_sc_hd__mux4_1
*I *2006:Q O *D sky130_fd_sc_hd__dfxtp_1
*CAP
1 *1836:A1 0.000188689
2 *1745:A1 6.99751e-05
3 *2006:Q 8.65563e-05
4 *370:10 0.00034522
5 *1745:A1 *1745:A2 0.000137983
6 *1836:A1 *1836:A0 1.21258e-05
7 *1836:A1 *454:49 6.28241e-05
8 *1836:A1 *454:53 0
9 *1836:A1 *456:84 0.000162807
10 *370:10 *456:84 1.17968e-05
11 *1745:A0 *370:10 0.000128154
12 *2006:D *1836:A1 0.000123295
13 *2006:D *370:10 0.000206563
14 *269:77 *1836:A1 0.000146959
*RES
1 *2006:Q *370:10 16.2821 
2 *370:10 *1745:A1 15.1571 
3 *370:10 *1836:A1 18.6393 
*END

*D_NET *371 0.00227061
*CONN
*I *1837:A1 I *D sky130_fd_sc_hd__mux2_1
*I *1634:A1 I *D sky130_fd_sc_hd__mux4_1
*I *2007:Q O *D sky130_fd_sc_hd__dfxtp_1
*CAP
1 *1837:A1 0.000233684
2 *1634:A1 3.39029e-05
3 *2007:Q 0.000385994
4 *371:10 0.00065358
5 *1634:A1 *1634:A3 2.59355e-05
6 *1837:A1 *1634:S0 1.19402e-05
7 *1837:A1 *1738:S 0.000186669
8 *1837:A1 *455:55 0
9 *1837:A1 *455:57 5.71472e-05
10 *1837:A1 *455:73 0.000142856
11 *371:10 *1634:S0 4.35048e-05
12 *371:10 *407:467 2.05418e-05
13 *2007:D *1837:A1 0.0003467
14 *2007:D *371:10 0.000128154
15 *2040:D *1837:A1 0
*RES
1 *2007:Q *371:10 18.8536 
2 *371:10 *1634:A1 14.3357 
3 *371:10 *1837:A1 20.2464 
*END

*D_NET *372 0.0012824
*CONN
*I *1838:A1 I *D sky130_fd_sc_hd__mux2_1
*I *1642:A1 I *D sky130_fd_sc_hd__mux4_1
*I *2008:Q O *D sky130_fd_sc_hd__dfxtp_1
*CAP
1 *1838:A1 0.000188867
2 *1642:A1 0.000225042
3 *2008:Q 0
4 *372:6 0.000413909
5 *1642:A1 *1642:S0 3.57366e-05
6 *1642:A1 *407:449 0.000117543
7 *1642:A1 *408:216 0
8 *1642:A1 *429:10 3.69047e-06
9 *1838:A1 *408:216 0
10 *1642:A0 *1642:A1 5.33005e-05
11 *1643:A1 *1642:A1 4.51495e-05
12 *1838:S *1838:A1 2.27416e-05
13 *183:8 *1838:A1 1.42064e-05
14 *276:117 *1642:A1 0.000122942
15 *276:117 *1838:A1 3.92757e-05
*RES
1 *2008:Q *372:6 13.8 
2 *372:6 *1642:A1 19.2643 
3 *372:6 *1838:A1 16.6036 
*END

*D_NET *373 0.00204464
*CONN
*I *1839:A1 I *D sky130_fd_sc_hd__mux2_1
*I *1650:A1 I *D sky130_fd_sc_hd__mux4_1
*I *2009:Q O *D sky130_fd_sc_hd__dfxtp_1
*CAP
1 *1839:A1 0.0003544
2 *1650:A1 0
3 *2009:Q 0.000187165
4 *373:10 0.000541566
5 *1839:A1 *1650:A3 0.000183298
6 *1839:A1 *1811:A1 0
7 *1839:A1 *457:85 4.33899e-05
8 *1839:A1 *457:95 0.000420679
9 *373:10 *1650:S0 0
10 *373:10 *389:10 6.65398e-05
11 *373:10 *457:95 3.34366e-05
12 *1650:A0 *1839:A1 4.34682e-05
13 *1811:S *373:10 7.08001e-05
14 *2009:D *1839:A1 9.99014e-05
15 *2042:D *373:10 0
*RES
1 *2009:Q *373:10 22.3714 
2 *373:10 *1650:A1 9.3 
3 *373:10 *1839:A1 27.4786 
*END

*D_NET *374 0.00307519
*CONN
*I *1840:A1 I *D sky130_fd_sc_hd__mux2_1
*I *1658:A1 I *D sky130_fd_sc_hd__mux4_1
*I *2010:Q O *D sky130_fd_sc_hd__dfxtp_1
*CAP
1 *1840:A1 0.000146776
2 *1658:A1 0.00057735
3 *2010:Q 0.000338176
4 *374:10 0.0010623
5 *1658:A1 *1658:A2 0.000263663
6 *1658:A1 *1658:A3 0.000181774
7 *1658:A1 *1658:S0 5.48674e-05
8 *1658:A1 *1737:S0 6.39901e-05
9 *1840:A1 *1737:S0 0
10 *1840:A1 *1840:A0 3.85567e-05
11 *1840:A1 *427:79 1.5709e-05
12 *374:10 *427:79 9.24114e-05
13 *2010:D *1658:A1 8.14853e-05
14 *2010:D *1840:A1 8.03635e-05
15 *269:141 *374:10 7.77652e-05
*RES
1 *2010:Q *374:10 14.4964 
2 *374:10 *1658:A1 28.2464 
3 *374:10 *1840:A1 20.8893 
*END

*D_NET *375 0.00129036
*CONN
*I *1721:A2 I *D sky130_fd_sc_hd__mux4_1
*I *1842:A0 I *D sky130_fd_sc_hd__mux2_1
*I *2011:Q O *D sky130_fd_sc_hd__dfxtp_1
*CAP
1 *1721:A2 0.000257074
2 *1842:A0 0
3 *2011:Q 0.000204729
4 *375:8 0.000461803
5 *1721:A2 *1721:A3 0.000125724
6 *1721:A2 *1842:A1 9.41642e-05
7 *1721:A2 *2082:A 6.80706e-05
8 *1721:A2 *408:146 3.25078e-05
9 *1721:A0 *1721:A2 2.3541e-05
10 *2011:D *375:8 2.27416e-05
*RES
1 *2011:Q *375:8 12.8179 
2 *375:8 *1842:A0 9.3 
3 *375:8 *1721:A2 22.358 
*END

*D_NET *376 0.00232647
*CONN
*I *1729:A2 I *D sky130_fd_sc_hd__mux4_1
*I *1843:A0 I *D sky130_fd_sc_hd__mux2_1
*I *2012:Q O *D sky130_fd_sc_hd__dfxtp_1
*CAP
1 *1729:A2 0.000305251
2 *1843:A0 0
3 *2012:Q 0.000134675
4 *376:10 0.000439927
5 *1729:A2 *1806:A0 6.98553e-06
6 *1729:A2 *1843:A1 0.000276211
7 *1729:A2 *407:427 0
8 *1729:A0 *1729:A2 0
9 *1843:S *376:10 0
10 *1861:A0 *1729:A2 0.000318101
11 *1861:A0 *376:10 5.71472e-05
12 *1861:S *1729:A2 5.58941e-05
13 *2004:D *1729:A2 0
14 *2012:D *376:10 4.59429e-05
15 *269:8 *1729:A2 4.73656e-05
16 *269:12 *1729:A2 0.000353065
17 *269:61 *1729:A2 1.14548e-05
18 *276:22 *1729:A2 7.6644e-05
19 *276:35 *376:10 0.000197807
*RES
1 *2012:Q *376:10 13.05 
2 *376:10 *1843:A0 9.3 
3 *376:10 *1729:A2 27.483 
*END

*D_NET *377 0.00319715
*CONN
*I *1844:A0 I *D sky130_fd_sc_hd__mux2_1
*I *1737:A2 I *D sky130_fd_sc_hd__mux4_1
*I *2013:Q O *D sky130_fd_sc_hd__dfxtp_1
*CAP
1 *1844:A0 0.000345022
2 *1737:A2 1.58849e-05
3 *2013:Q 0.000452793
4 *377:10 0.0008137
5 *1844:A0 *1737:S0 0.000154937
6 *1844:A0 *1844:A1 0.00016493
7 *1844:A0 *453:79 0.000138217
8 *377:10 *1737:S0 1.58435e-05
9 *377:10 *419:14 3.38968e-05
10 *377:10 *453:51 5.41794e-05
11 *1737:A0 *1737:A2 6.98553e-06
12 *1835:A1 *377:10 0.000315564
13 *1862:A0 *1844:A0 7.67045e-05
14 *1862:S *1844:A0 1.76039e-05
15 *2005:D *1844:A0 8.16036e-05
16 *2005:D *377:10 0.000179053
17 *274:55 *1844:A0 0.000281938
18 *274:61 *1844:A0 4.82947e-05
*RES
1 *2013:Q *377:10 23.2107 
2 *377:10 *1737:A2 14.0366 
3 *377:10 *1844:A0 24.6571 
*END

*D_NET *378 0.0028736
*CONN
*I *1745:A2 I *D sky130_fd_sc_hd__mux4_1
*I *1845:A0 I *D sky130_fd_sc_hd__mux2_1
*I *2014:Q O *D sky130_fd_sc_hd__dfxtp_1
*CAP
1 *1745:A2 0.000281
2 *1845:A0 0.00047072
3 *2014:Q 6.53788e-05
4 *378:8 0.000817099
5 *1745:A2 *1745:S0 5.33005e-05
6 *1745:A2 *407:289 0.000150294
7 *1745:A2 *407:293 0.000386121
8 *1845:A0 *1845:A1 0.000188586
9 *1845:A0 *455:102 0
10 *378:8 *455:102 0
11 *1745:A1 *1745:A2 0.000137983
12 *1973:D *1845:A0 0.000235493
13 *1973:D *378:8 5.01213e-05
14 *176:12 *1845:A0 3.75052e-05
*RES
1 *2014:Q *378:8 15.1393 
2 *378:8 *1845:A0 23.0857 
3 *378:8 *1745:A2 20.3402 
*END

*D_NET *379 0.00397749
*CONN
*I *1634:A2 I *D sky130_fd_sc_hd__mux4_1
*I *1846:A0 I *D sky130_fd_sc_hd__mux2_1
*I *2015:Q O *D sky130_fd_sc_hd__dfxtp_1
*CAP
1 *1634:A2 0.000789051
2 *1846:A0 0.000279049
3 *2015:Q 0.000168673
4 *379:10 0.00123677
5 *1634:A2 *455:55 0.00026537
6 *1634:A2 *455:73 4.08637e-05
7 *1846:A0 *1846:A1 0.000189335
8 *1846:A0 *455:73 1.24368e-05
9 *379:10 *1809:A1 0.000127446
10 *379:10 *416:45 0.00020305
11 *379:10 *455:73 3.17148e-05
12 *1809:S *1634:A2 0.000479645
13 *1826:S *379:10 2.28335e-05
14 *174:14 *1634:A2 0
15 *253:10 *379:10 8.31218e-05
16 *274:53 *1634:A2 2.40476e-05
17 *274:55 *1846:A0 1.00073e-05
18 *363:12 *1634:A2 1.40749e-05
*RES
1 *2015:Q *379:10 23.2821 
2 *379:10 *1846:A0 13.1214 
3 *379:10 *1634:A2 29.6437 
*END

*D_NET *380 0.00263856
*CONN
*I *1642:A2 I *D sky130_fd_sc_hd__mux4_1
*I *1847:A0 I *D sky130_fd_sc_hd__mux2_1
*I *2016:Q O *D sky130_fd_sc_hd__dfxtp_1
*CAP
1 *1642:A2 0.000526805
2 *1847:A0 0.000173163
3 *2016:Q 0
4 *380:4 0.000699968
5 *1642:A2 *1642:A3 3.33238e-05
6 *1642:A2 *2041:CLK 7.77376e-06
7 *1642:A2 *407:463 0.000264144
8 *1642:A2 *408:207 0.000125724
9 *1642:A2 *408:216 1.02504e-05
10 *1847:A0 *2008:CLK 9.46929e-05
11 *1847:A0 *456:41 0.000128154
12 *1847:A0 *456:52 0.000223599
13 *1643:A1 *1642:A2 1.66955e-05
14 *1809:S *1847:A0 0.000250357
15 *2041:D *1642:A2 3.12916e-05
16 *269:26 *1847:A0 5.26184e-05
17 *276:117 *1642:A2 0
*RES
1 *2016:Q *380:4 9.3 
2 *380:4 *1847:A0 24.4429 
3 *380:4 *1642:A2 26.1482 
*END

*D_NET *381 0.00367178
*CONN
*I *1650:A2 I *D sky130_fd_sc_hd__mux4_1
*I *1848:A0 I *D sky130_fd_sc_hd__mux2_1
*I *2017:Q O *D sky130_fd_sc_hd__dfxtp_1
*CAP
1 *1650:A2 0.000802594
2 *1848:A0 0.000311981
3 *2017:Q 0.000278628
4 *381:10 0.0013932
5 *1650:A2 *1650:A3 0.000487326
6 *1650:A2 *1811:A1 0.00014285
7 *1650:A2 *1848:A1 1.15281e-05
8 *1650:A2 *457:95 1.32552e-05
9 *1848:A0 *1848:A1 0.000102781
10 *381:10 *389:10 0
11 *381:10 *457:95 0
12 *1650:A0 *1650:A2 8.50551e-05
13 *1811:S *381:10 0
14 *1848:S *381:10 0
15 *1976:D *381:10 4.25809e-05
*RES
1 *2017:Q *381:10 23.2821 
2 *381:10 *1848:A0 13.7464 
3 *381:10 *1650:A2 22.3982 
*END

*D_NET *382 0.00375051
*CONN
*I *1658:A2 I *D sky130_fd_sc_hd__mux4_1
*I *1849:A0 I *D sky130_fd_sc_hd__mux2_1
*I *2018:Q O *D sky130_fd_sc_hd__dfxtp_1
*CAP
1 *1658:A2 0.000632285
2 *1849:A0 0.00035075
3 *2018:Q 0
4 *382:4 0.000983035
5 *1658:A2 *1650:S0 2.39148e-05
6 *1658:A2 *1737:S0 0.00012401
7 *1658:A2 *407:336 0.000171368
8 *1658:A2 *427:79 0.000662105
9 *1849:A0 *1849:A1 0.000318101
10 *1658:A1 *1658:A2 0.000263663
11 *1839:S *1658:A2 0
12 *1848:S *1849:A0 0
13 *1849:S *1849:A0 2.14757e-05
14 *1977:D *1849:A0 5.57914e-05
15 *269:107 *1849:A0 2.84398e-05
16 *269:141 *1849:A0 0.000115575
17 *274:61 *1849:A0 0
*RES
1 *2018:Q *382:4 9.3 
2 *382:4 *1849:A0 26.3893 
3 *382:4 *1658:A2 29.9652 
*END

*D_NET *383 0.0014749
*CONN
*I *1805:A1 I *D sky130_fd_sc_hd__mux2_1
*I *1721:A3 I *D sky130_fd_sc_hd__mux4_1
*I *1970:Q O *D sky130_fd_sc_hd__dfxtp_1
*CAP
1 *1805:A1 0
2 *1721:A3 0.000165058
3 *1970:Q 0.000118658
4 *383:8 0.000283716
5 *1721:A3 *408:146 8.67597e-05
6 *1721:A3 *451:75 0.00022287
7 *1721:A3 *451:86 0.000148189
8 *1721:A2 *1721:A3 0.000125724
9 *1805:S *383:8 0.000301184
10 *1970:D *383:8 2.27416e-05
*RES
1 *1970:Q *383:8 12.3179 
2 *383:8 *1721:A3 22.9786 
3 *383:8 *1805:A1 9.3 
*END

*D_NET *384 0.00245117
*CONN
*I *1729:A3 I *D sky130_fd_sc_hd__mux4_1
*I *1806:A1 I *D sky130_fd_sc_hd__mux2_1
*I *1971:Q O *D sky130_fd_sc_hd__dfxtp_1
*CAP
1 *1729:A3 0.000172813
2 *1806:A1 0
3 *1971:Q 0.00039664
4 *384:12 0.000569453
5 *1729:A3 *1806:A0 0.000700563
6 *1729:A3 *407:285 0.000254565
7 *1729:A3 *407:415 0.000140933
8 *384:12 *431:12 7.45454e-05
9 *1806:S *1729:A3 1.04232e-05
10 *1834:A1 *384:12 5.33433e-05
11 *1971:D *384:12 0
12 *269:61 *1729:A3 5.51537e-05
13 *269:77 *1729:A3 2.27416e-05
14 *269:77 *384:12 0
15 *368:10 *384:12 0
*RES
1 *1971:Q *384:12 23.3536 
2 *384:12 *1806:A1 9.3 
3 *384:12 *1729:A3 16.9786 
*END

*D_NET *385 0.00132126
*CONN
*I *1737:A3 I *D sky130_fd_sc_hd__mux4_1
*I *1807:A1 I *D sky130_fd_sc_hd__mux2_1
*I *1972:Q O *D sky130_fd_sc_hd__dfxtp_1
*CAP
1 *1737:A3 0.000169756
2 *1807:A1 6.78435e-05
3 *1972:Q 0.000143707
4 *385:8 0.000381307
5 *1737:A3 *1737:S0 5.49489e-05
6 *1737:A0 *1737:A3 0.000155554
7 *1737:A0 *385:8 5.48674e-05
8 *1737:A1 *1737:A3 5.33005e-05
9 *1737:A1 *385:8 2.95944e-05
10 *1835:A1 *1737:A3 5.41794e-05
11 *1835:A1 *1807:A1 0.000128146
12 *2013:D *1807:A1 0
13 *269:141 *1737:A3 2.42516e-05
14 *269:141 *385:8 3.79877e-06
*RES
1 *1972:Q *385:8 15.5679 
2 *385:8 *1807:A1 15.4429 
3 *385:8 *1737:A3 17.5321 
*END

*D_NET *386 0.00346887
*CONN
*I *1808:A1 I *D sky130_fd_sc_hd__mux2_1
*I *1745:A3 I *D sky130_fd_sc_hd__mux4_1
*I *1973:Q O *D sky130_fd_sc_hd__dfxtp_1
*CAP
1 *1808:A1 0.000316473
2 *1745:A3 0
3 *1973:Q 0.000502671
4 *386:14 0.000819144
5 *1808:A1 *1744:S0 5.16396e-05
6 *1808:A1 *454:89 0.000265447
7 *1644:B1 *1808:A1 0.00032495
8 *1644:B1 *386:14 0.000320031
9 *1973:D *386:14 9.7659e-05
10 *2039:D *386:14 1.51611e-06
11 *273:46 *1808:A1 0.00019484
12 *273:46 *386:14 0.000320031
13 *276:61 *386:14 7.47251e-05
14 *362:10 *386:14 0.000179745
*RES
1 *1973:Q *386:14 24.7107 
2 *386:14 *1745:A3 13.8 
3 *386:14 *1808:A1 20.7643 
*END

*D_NET *387 0.00181579
*CONN
*I *1634:A3 I *D sky130_fd_sc_hd__mux4_1
*I *1809:A1 I *D sky130_fd_sc_hd__mux2_1
*I *1974:Q O *D sky130_fd_sc_hd__dfxtp_1
*CAP
1 *1634:A3 0.00023204
2 *1809:A1 0.000196338
3 *1974:Q 0
4 *387:4 0.000428378
5 *1634:A3 *1634:S0 0.000135028
6 *1809:A1 *1738:S 3.05475e-05
7 *1634:A0 *1634:A3 5.32724e-05
8 *1634:A1 *1634:A3 2.59355e-05
9 *253:10 *1809:A1 0.000125731
10 *274:53 *1634:A3 0.000441781
11 *363:12 *1634:A3 1.92905e-05
12 *379:10 *1809:A1 0.000127446
*RES
1 *1974:Q *387:4 9.3 
2 *387:4 *1809:A1 21.7107 
3 *387:4 *1634:A3 15.7643 
*END

*D_NET *388 0.00163934
*CONN
*I *1642:A3 I *D sky130_fd_sc_hd__mux4_1
*I *1810:A1 I *D sky130_fd_sc_hd__mux2_1
*I *1975:Q O *D sky130_fd_sc_hd__dfxtp_1
*CAP
1 *1642:A3 0.00010591
2 *1810:A1 0.000190244
3 *1975:Q 0.000305441
4 *388:12 0.000601596
5 *1642:A3 *407:463 0.000122101
6 *388:12 *407:463 0.000100969
7 *388:12 *408:207 0
8 *388:12 *429:46 0
9 *1642:A2 *1642:A3 3.33238e-05
10 *1643:A1 *1642:A3 9.37334e-05
11 *1643:A1 *1810:A1 6.32754e-05
12 *1809:S *388:12 0
13 *269:26 *388:12 2.27416e-05
*RES
1 *1975:Q *388:12 23.2107 
2 *388:12 *1810:A1 12.8536 
3 *388:12 *1642:A3 12.3 
*END

*D_NET *389 0.00172519
*CONN
*I *1650:A3 I *D sky130_fd_sc_hd__mux4_1
*I *1811:A1 I *D sky130_fd_sc_hd__mux2_1
*I *1976:Q O *D sky130_fd_sc_hd__dfxtp_1
*CAP
1 *1650:A3 0.000140341
2 *1811:A1 5.77777e-05
3 *1976:Q 6.3109e-05
4 *389:10 0.000261227
5 *1650:A3 *457:95 2.58821e-05
6 *1811:A1 *457:95 4.884e-05
7 *389:10 *457:95 1.78353e-05
8 *1650:A0 *1650:A3 7.78277e-05
9 *1650:A2 *1650:A3 0.000487326
10 *1650:A2 *1811:A1 0.00014285
11 *1811:S *389:10 0.00015234
12 *1839:A1 *1650:A3 0.000183298
13 *1839:A1 *1811:A1 0
14 *373:10 *389:10 6.65398e-05
15 *381:10 *389:10 0
*RES
1 *1976:Q *389:10 20.55 
2 *389:10 *1811:A1 11.0857 
3 *389:10 *1650:A3 14.9071 
*END

*D_NET *390 0.00148543
*CONN
*I *1658:A3 I *D sky130_fd_sc_hd__mux4_1
*I *1812:A1 I *D sky130_fd_sc_hd__mux2_1
*I *1977:Q O *D sky130_fd_sc_hd__dfxtp_1
*CAP
1 *1658:A3 0.000260911
2 *1812:A1 4.46754e-05
3 *1977:Q 9.79149e-05
4 *390:12 0.000403501
5 *1658:A3 *1658:S0 5.49489e-05
6 *1658:A3 *436:133 5.33005e-05
7 *1812:A1 *436:133 9.71197e-05
8 *390:12 *436:133 0.000151333
9 *1658:A1 *1658:A3 0.000181774
10 *269:107 *390:12 1.17968e-05
11 *269:141 *390:12 0.000128154
*RES
1 *1977:Q *390:12 20.7821 
2 *390:12 *1812:A1 10.2464 
3 *390:12 *1658:A3 14.9071 
*END

*D_NET *391 0.00218361
*CONN
*I *1814:A0 I *D sky130_fd_sc_hd__mux2_1
*I *1716:A0 I *D sky130_fd_sc_hd__mux4_1
*I *1978:Q O *D sky130_fd_sc_hd__dfxtp_1
*CAP
1 *1814:A0 0.000109603
2 *1716:A0 0.000183351
3 *1978:Q 0.000351417
4 *391:10 0.000644371
5 *1716:A0 *1639:S0 4.01768e-05
6 *1716:A0 *1716:S0 3.34366e-05
7 *1716:A0 *1794:A_N 7.32381e-05
8 *1716:A0 *451:141 0.000140543
9 *1814:A0 *422:18 0
10 *1814:A0 *451:141 7.6176e-05
11 *1814:A0 *451:143 6.84568e-05
12 *391:10 *2091:A 0.00023814
13 *1716:A2 *1716:A0 5.33334e-05
14 *1978:D *1814:A0 0.000171368
15 *263:95 *1716:A0 0
16 *263:95 *1814:A0 0
*RES
1 *1978:Q *391:10 18.5679 
2 *391:10 *1716:A0 18.8179 
3 *391:10 *1814:A0 17.2643 
*END

*D_NET *392 0.00143133
*CONN
*I *1726:A0 I *D sky130_fd_sc_hd__mux4_1
*I *1815:A0 I *D sky130_fd_sc_hd__mux2_1
*I *1979:Q O *D sky130_fd_sc_hd__dfxtp_1
*CAP
1 *1726:A0 0.000128855
2 *1815:A0 0
3 *1979:Q 0.000297751
4 *392:10 0.000426606
5 *1726:A0 *408:30 1.91512e-05
6 *392:10 *408:30 9.41642e-05
7 *392:10 *417:91 4.43355e-05
8 *1727:A2 *1726:A0 6.44591e-05
9 *1727:A2 *392:10 8.58196e-05
10 *1913:D *1726:A0 9.4736e-05
11 *1913:D *392:10 7.83366e-05
12 *1979:D *392:10 9.71197e-05
*RES
1 *1979:Q *392:10 18.7464 
2 *392:10 *1815:A0 13.8 
3 *392:10 *1726:A0 17.1214 
*END

*D_NET *393 0.00325938
*CONN
*I *1816:A0 I *D sky130_fd_sc_hd__mux2_1
*I *1732:A0 I *D sky130_fd_sc_hd__mux4_1
*I *1980:Q O *D sky130_fd_sc_hd__dfxtp_1
*CAP
1 *1816:A0 0.000934832
2 *1732:A0 0
3 *1980:Q 0.00015576
4 *393:10 0.00109059
5 *1816:A0 *1637:S0 1.76039e-05
6 *1816:A0 *401:12 3.90513e-05
7 *1816:A0 *407:89 0
8 *1816:A0 *408:431 6.9545e-05
9 *1816:A0 *408:433 5.98316e-05
10 *393:10 *1637:S0 7.17932e-05
11 *393:10 *401:12 5.80706e-06
12 *393:10 *433:93 0.000137983
13 *1732:A2 *1816:A0 1.38308e-05
14 *1732:A3 *1816:A0 0.000133397
15 *270:34 *1816:A0 0.000529356
16 *297:8 *393:10 0
*RES
1 *1980:Q *393:10 17.1036 
2 *393:10 *1732:A0 13.8 
3 *393:10 *1816:A0 28.6571 
*END

*D_NET *394 0.00265201
*CONN
*I *1817:A0 I *D sky130_fd_sc_hd__mux2_1
*I *1740:A0 I *D sky130_fd_sc_hd__mux4_1
*I *1981:Q O *D sky130_fd_sc_hd__dfxtp_1
*CAP
1 *1817:A0 0.000547549
2 *1740:A0 0.000200072
3 *1981:Q 0.00011167
4 *394:6 0.000859291
5 *1740:A0 *407:167 0
6 *1817:A0 *1740:S1 0.000312215
7 *1817:A0 *1817:A1 0.000487596
8 *1817:A0 *1963:CLK 9.60939e-05
9 *1740:A2 *1817:A0 2.17375e-05
10 *1740:A2 *394:6 1.57885e-05
11 *1798:A0 *1740:A0 0
*RES
1 *1981:Q *394:6 10.6571 
2 *394:6 *1740:A0 21.4607 
3 *394:6 *1817:A0 19.8714 
*END

*D_NET *395 0.00159665
*CONN
*I *1818:A0 I *D sky130_fd_sc_hd__mux2_1
*I *1631:A0 I *D sky130_fd_sc_hd__mux4_1
*I *1982:Q O *D sky130_fd_sc_hd__dfxtp_1
*CAP
1 *1818:A0 0.000176872
2 *1631:A0 0
3 *1982:Q 0.000182979
4 *395:10 0.000359851
5 *1818:A0 *1754:A1 9.12446e-05
6 *1818:A0 *407:89 0
7 *1818:A0 *455:169 0.000354511
8 *395:10 *1754:A1 4.46186e-06
9 *395:10 *407:89 0
10 *1631:A2 *395:10 0.00010096
11 *1754:S *1818:A0 0.000313647
12 *1898:D *395:10 0
13 *1982:D *1818:A0 1.21258e-05
14 *262:115 *1818:A0 0
15 *266:71 *1818:A0 0
16 *266:71 *395:10 0
*RES
1 *1982:Q *395:10 16.6929 
2 *395:10 *1631:A0 13.8 
3 *395:10 *1818:A0 19.7643 
*END

*D_NET *396 0.00186555
*CONN
*I *1819:A0 I *D sky130_fd_sc_hd__mux2_1
*I *1637:A0 I *D sky130_fd_sc_hd__mux4_1
*I *1983:Q O *D sky130_fd_sc_hd__dfxtp_1
*CAP
1 *1819:A0 0.000174681
2 *1637:A0 7.2151e-05
3 *1983:Q 0.000181708
4 *396:14 0.00042854
5 *1637:A0 *1637:A1 0.000120088
6 *1637:A0 *1637:S0 5.33005e-05
7 *1819:A0 *1637:S0 8.47107e-05
8 *1819:A0 *456:134 0.00031155
9 *396:14 *1637:S0 2.59004e-05
10 *1637:A2 *1637:A0 9.58363e-05
11 *1637:A3 *1819:A0 0.000156118
12 *1983:D *1819:A0 0.000139202
13 *16:31 *396:14 2.17647e-05
14 *300:10 *396:14 0
*RES
1 *1983:Q *396:14 16.6393 
2 *396:14 *1637:A0 16.3893 
3 *396:14 *1819:A0 19.05 
*END

*D_NET *397 0.000964116
*CONN
*I *1820:A0 I *D sky130_fd_sc_hd__mux2_1
*I *1647:A0 I *D sky130_fd_sc_hd__mux4_1
*I *1984:Q O *D sky130_fd_sc_hd__dfxtp_1
*CAP
1 *1820:A0 0.000163102
2 *1647:A0 1.96283e-05
3 *1984:Q 0.000133201
4 *397:10 0.000315931
5 *1647:A0 *1647:A1 5.33005e-05
6 *1647:A0 *1647:S0 3.23206e-05
7 *1820:A0 *1647:A1 0
8 *1820:A0 *1957:CLK 0
9 *397:10 *1957:CLK 0
10 *397:10 *421:18 5.52302e-05
11 *1957:D *1820:A0 0
12 *1984:D *1820:A0 0
13 *266:53 *1820:A0 4.49293e-05
14 *266:53 *397:10 0.000146474
*RES
1 *1984:Q *397:10 16.2821 
2 *397:10 *1647:A0 14.3357 
3 *397:10 *1820:A0 16.3536 
*END

*D_NET *398 0.00235432
*CONN
*I *1821:A0 I *D sky130_fd_sc_hd__mux2_1
*I *1653:A0 I *D sky130_fd_sc_hd__mux4_1
*I *1985:Q O *D sky130_fd_sc_hd__dfxtp_1
*CAP
1 *1821:A0 0.000679996
2 *1653:A0 0.000306233
3 *1985:Q 0
4 *398:4 0.000986228
5 *1653:A0 *436:21 0
6 *1821:A0 *1968:CLK 7.83366e-05
7 *1821:A0 *420:121 0.000107644
8 *1821:A0 *436:48 0.000148196
9 *1653:A2 *1653:A0 1.02504e-05
10 *1653:A3 *1653:A0 3.13838e-05
11 *1821:S *1821:A0 6.05161e-06
*RES
1 *1985:Q *398:4 9.3 
2 *398:4 *1653:A0 22.5321 
3 *398:4 *1821:A0 27.3536 
*END

*D_NET *399 0.00196477
*CONN
*I *1716:A1 I *D sky130_fd_sc_hd__mux4_1
*I *1750:A1 I *D sky130_fd_sc_hd__mux2_1
*I *1894:Q O *D sky130_fd_sc_hd__dfxtp_1
*CAP
1 *1716:A1 0.000262323
2 *1750:A1 0
3 *1894:Q 0.000445797
4 *399:10 0.00070812
5 *1716:A1 *1750:A0 0.000115474
6 *1716:A1 *1794:A_N 0.000197991
7 *1716:A1 *407:265 0
8 *399:10 *1750:A0 1.02504e-05
9 *399:10 *407:265 0
10 *1894:D *399:10 0
11 *1954:D *1716:A1 0.000146474
12 *267:14 *1716:A1 7.83366e-05
*RES
1 *1894:Q *399:10 20.55 
2 *399:10 *1750:A1 13.8 
3 *399:10 *1716:A1 20.3 
*END

*D_NET *400 0.00231933
*CONN
*I *1751:A1 I *D sky130_fd_sc_hd__mux2_1
*I *1726:A1 I *D sky130_fd_sc_hd__mux4_1
*I *1895:Q O *D sky130_fd_sc_hd__dfxtp_1
*CAP
1 *1751:A1 0.000300158
2 *1726:A1 0.000160836
3 *1895:Q 0.000453041
4 *400:10 0.000914035
5 *1726:A1 *1913:CLK 0
6 *1726:A1 *452:10 0
7 *1751:A1 *1751:A0 5.52238e-05
8 *400:10 *2120:A 0
9 *400:10 *452:10 0
10 *1895:D *1751:A1 0.000131584
11 *1895:D *400:10 0
12 *1913:D *1726:A1 0.000201127
13 *1913:D *1751:A1 0.000103323
*RES
1 *1895:Q *400:10 19.3714 
2 *400:10 *1726:A1 17.1929 
3 *400:10 *1751:A1 19.7107 
*END

*D_NET *401 0.00162066
*CONN
*I *1732:A1 I *D sky130_fd_sc_hd__mux4_1
*I *1752:A1 I *D sky130_fd_sc_hd__mux2_1
*I *1896:Q O *D sky130_fd_sc_hd__dfxtp_1
*CAP
1 *1732:A1 0
2 *1752:A1 0.000276096
3 *1896:Q 0.000173594
4 *401:12 0.00044969
5 *1752:A1 *1637:S0 0.00021845
6 *1752:A1 *1732:S0 9.11048e-06
7 *401:12 *407:89 0
8 *1732:A2 *1752:A1 0.000224583
9 *1732:A3 *1752:A1 0.000168841
10 *1788:A1 *401:12 4.35048e-05
11 *1816:A0 *401:12 3.90513e-05
12 *297:8 *401:12 1.19309e-05
13 *393:10 *401:12 5.80706e-06
*RES
1 *1896:Q *401:12 21.1929 
2 *401:12 *1752:A1 25.3357 
3 *401:12 *1732:A1 9.3 
*END

*D_NET *402 0.00210055
*CONN
*I *1753:A1 I *D sky130_fd_sc_hd__mux2_1
*I *1740:A1 I *D sky130_fd_sc_hd__mux4_1
*I *1897:Q O *D sky130_fd_sc_hd__dfxtp_1
*CAP
1 *1753:A1 7.20439e-05
2 *1740:A1 0.000151852
3 *1897:Q 0.000330256
4 *402:10 0.000554152
5 *1740:A1 *407:167 0
6 *1740:A1 *454:12 0
7 *402:10 *454:10 0
8 *1756:S *1753:A1 0.000443654
9 *1756:S *402:10 3.67142e-05
10 *1789:A1 *1740:A1 0
11 *1789:A1 *1753:A1 2.14757e-05
12 *1820:S *1740:A1 3.34295e-05
13 *1820:S *1753:A1 0.00040279
14 *1820:S *402:10 5.41794e-05
15 *1897:D *402:10 0
16 *1957:D *1740:A1 0
17 *1957:D *402:10 0
*RES
1 *1897:Q *402:10 18.3357 
2 *402:10 *1740:A1 16.05 
3 *402:10 *1753:A1 18.0321 
*END

*D_NET *403 0.000468571
*CONN
*I *1631:A1 I *D sky130_fd_sc_hd__mux4_1
*I *1754:A1 I *D sky130_fd_sc_hd__mux2_1
*I *1898:Q O *D sky130_fd_sc_hd__dfxtp_1
*CAP
1 *1631:A1 0
2 *1754:A1 0.000101861
3 *1898:Q 6.44827e-05
4 *403:8 0.000166344
5 *1631:A3 *403:8 4.01768e-05
6 *1818:A0 *1754:A1 9.12446e-05
7 *1898:D *1754:A1 0
8 *266:71 *1754:A1 0
9 *395:10 *1754:A1 4.46186e-06
*RES
1 *1898:Q *403:8 10.675 
2 *403:8 *1754:A1 20.55 
3 *403:8 *1631:A1 9.3 
*END

*D_NET *404 0.00271846
*CONN
*I *1637:A1 I *D sky130_fd_sc_hd__mux4_1
*I *1755:A1 I *D sky130_fd_sc_hd__mux2_1
*I *1899:Q O *D sky130_fd_sc_hd__dfxtp_1
*CAP
1 *1637:A1 0.000616166
2 *1755:A1 0.000198748
3 *1899:Q 6.70319e-05
4 *404:8 0.000881946
5 *1637:A1 *1637:S0 5.52238e-05
6 *1637:A1 *1755:A0 4.75812e-05
7 *1755:A1 *1755:A0 0.00033032
8 *404:8 *433:16 9.83388e-05
9 *1637:A0 *1637:A1 0.000120088
10 *1637:A2 *1637:A1 2.91615e-05
11 *1755:S *1755:A1 9.83388e-05
12 *1899:D *1755:A1 0
13 *1983:D *1637:A1 0.000175512
*RES
1 *1899:Q *404:8 14.7464 
2 *404:8 *1755:A1 19.0321 
3 *404:8 *1637:A1 23.4607 
*END

*D_NET *405 0.00145221
*CONN
*I *1756:A1 I *D sky130_fd_sc_hd__mux2_1
*I *1647:A1 I *D sky130_fd_sc_hd__mux4_1
*I *1900:Q O *D sky130_fd_sc_hd__dfxtp_1
*CAP
1 *1756:A1 0.000204605
2 *1647:A1 0.000283178
3 *1900:Q 0
4 *405:6 0.000487783
5 *1647:A1 *1647:S0 0.00017684
6 *1647:A1 *1756:A0 0
7 *1756:A1 *1756:A0 0
8 *1647:A0 *1647:A1 5.33005e-05
9 *1756:S *1756:A1 3.67142e-05
10 *1820:A0 *1647:A1 0
11 *1984:D *1647:A1 0.000103267
12 *266:53 *1647:A1 0.000106517
*RES
1 *1900:Q *405:6 13.8 
2 *405:6 *1647:A1 19.675 
3 *405:6 *1756:A1 16.6036 
*END

*D_NET *406 0.00109551
*CONN
*I *1757:A1 I *D sky130_fd_sc_hd__mux2_1
*I *1653:A1 I *D sky130_fd_sc_hd__mux4_1
*I *1901:Q O *D sky130_fd_sc_hd__dfxtp_1
*CAP
1 *1757:A1 0.000406979
2 *1653:A1 3.82418e-05
3 *1901:Q 4.57119e-05
4 *406:6 0.000490932
5 *1653:A2 *1757:A1 0.000113647
*RES
1 *1901:Q *406:6 9.83571 
2 *406:6 *1653:A1 10.0321 
3 *406:6 *1757:A1 23.5679 
*END

*D_NET *407 0.092414
*CONN
*I *1685:B I *D sky130_fd_sc_hd__and3_1
*I *1686:A1 I *D sky130_fd_sc_hd__a21oi_1
*I *1683:A I *D sky130_fd_sc_hd__nor2_1
*I *1682:A I *D sky130_fd_sc_hd__and2_1
*I *1718:S0 I *D sky130_fd_sc_hd__mux4_1
*I *1716:S0 I *D sky130_fd_sc_hd__mux4_1
*I *1729:S0 I *D sky130_fd_sc_hd__mux4_1
*I *1728:S0 I *D sky130_fd_sc_hd__mux4_1
*I *1721:S0 I *D sky130_fd_sc_hd__mux4_1
*I *1720:S0 I *D sky130_fd_sc_hd__mux4_1
*I *1641:S0 I *D sky130_fd_sc_hd__mux4_1
*I *1642:S0 I *D sky130_fd_sc_hd__mux4_1
*I *1633:S0 I *D sky130_fd_sc_hd__mux4_1
*I *1634:S0 I *D sky130_fd_sc_hd__mux4_1
*I *1736:S0 I *D sky130_fd_sc_hd__mux4_1
*I *1744:S0 I *D sky130_fd_sc_hd__mux4_1
*I *1745:S0 I *D sky130_fd_sc_hd__mux4_1
*I *1734:S0 I *D sky130_fd_sc_hd__mux4_1
*I *1649:S0 I *D sky130_fd_sc_hd__mux4_1
*I *1657:S0 I *D sky130_fd_sc_hd__mux4_1
*I *1650:S0 I *D sky130_fd_sc_hd__mux4_1
*I *1658:S0 I *D sky130_fd_sc_hd__mux4_1
*I *1737:S0 I *D sky130_fd_sc_hd__mux4_1
*I *1639:S0 I *D sky130_fd_sc_hd__mux4_1
*I *1726:S0 I *D sky130_fd_sc_hd__mux4_1
*I *1742:S0 I *D sky130_fd_sc_hd__mux4_1
*I *1629:S0 I *D sky130_fd_sc_hd__mux4_1
*I *1740:S0 I *D sky130_fd_sc_hd__mux4_1
*I *1647:S0 I *D sky130_fd_sc_hd__mux4_1
*I *1645:S0 I *D sky130_fd_sc_hd__mux4_1
*I *1655:S0 I *D sky130_fd_sc_hd__mux4_1
*I *1653:S0 I *D sky130_fd_sc_hd__mux4_1
*I *1631:S0 I *D sky130_fd_sc_hd__mux4_1
*I *1732:S0 I *D sky130_fd_sc_hd__mux4_1
*I *1637:S0 I *D sky130_fd_sc_hd__mux4_1
*I *1724:S0 I *D sky130_fd_sc_hd__mux4_1
*I *2027:Q O *D sky130_fd_sc_hd__dfrtp_4
*CAP
1 *1685:B 0.00018425
2 *1686:A1 0.000135644
3 *1683:A 0.000138378
4 *1682:A 0
5 *1718:S0 9.21571e-05
6 *1716:S0 6.10647e-05
7 *1729:S0 0
8 *1728:S0 0.00054943
9 *1721:S0 3.14324e-05
10 *1720:S0 0.000748334
11 *1641:S0 0.000473936
12 *1642:S0 4.00519e-05
13 *1633:S0 0.000518523
14 *1634:S0 0.000165403
15 *1736:S0 0.000909003
16 *1744:S0 0.000353685
17 *1745:S0 5.1068e-05
18 *1734:S0 0.000380663
19 *1649:S0 2.25053e-05
20 *1657:S0 0
21 *1650:S0 0.000709799
22 *1658:S0 1.22723e-05
23 *1737:S0 0.000886491
24 *1639:S0 0.00123975
25 *1726:S0 0.000702547
26 *1742:S0 0
27 *1629:S0 0.000595503
28 *1740:S0 2.27214e-05
29 *1647:S0 0.000565092
30 *1645:S0 0
31 *1655:S0 0.000310725
32 *1653:S0 0.000649733
33 *1631:S0 0
34 *1732:S0 3.89924e-05
35 *1637:S0 0.000576296
36 *1724:S0 0
37 *2027:Q 0
38 *407:624 0.000420509
39 *407:611 0.000428564
40 *407:523 0.00182482
41 *407:517 0.000700178
42 *407:467 0.00157279
43 *407:463 0.00189245
44 *407:449 0.0015917
45 *407:439 0.00138792
46 *407:427 0.00198982
47 *407:415 0.000825011
48 *407:373 0.000754441
49 *407:336 0.000818536
50 *407:311 0.00175805
51 *407:295 0.000937445
52 *407:293 0.00206909
53 *407:289 0.0018548
54 *407:285 0.00134354
55 *407:265 0.00212334
56 *407:261 0.00141258
57 *407:248 0.00211611
58 *407:234 0.0012682
59 *407:167 0.00122462
60 *407:89 0.00133961
61 *407:75 0.000880015
62 *407:71 0.00174678
63 *407:69 0.00170107
64 *407:61 0.00142452
65 *407:57 0.00203368
66 *407:55 0.00114563
67 *407:51 0.00140901
68 *407:20 0.00128022
69 *407:18 0.000973606
70 *407:12 0.00088773
71 *407:6 0.000416795
72 *407:4 0.000289379
73 *1629:S0 *410:49 4.49451e-05
74 *1629:S0 *410:53 4.43698e-05
75 *1629:S0 *410:57 0
76 *1633:S0 *1634:S1 0
77 *1633:S0 *408:158 0
78 *1633:S0 *426:83 4.35048e-05
79 *1633:S0 *456:41 0
80 *1637:S0 *1637:S1 0
81 *1647:S0 *1789:A0 0.000354627
82 *1650:S0 *1650:S1 0
83 *1650:S0 *436:133 0
84 *1650:S0 *457:95 0
85 *1653:S0 *1653:S1 4.81056e-05
86 *1653:S0 *1982:CLK 0
87 *1653:S0 *420:12 0.000201127
88 *1653:S0 *420:121 0.000188734
89 *1655:S0 *408:484 0
90 *1683:A *1688:A 9.56968e-05
91 *1683:A *2032:D 5.71472e-05
92 *1685:B *1688:A 3.63298e-05
93 *1685:B *408:570 0
94 *1685:B *408:574 0.00034321
95 *1685:B *409:16 3.40128e-05
96 *1686:A1 *1686:B1 5.33433e-05
97 *1716:S0 *1794:A_N 0
98 *1716:S0 *451:141 0.000106403
99 *1720:S0 *451:44 1.94945e-05
100 *1726:S0 *1719:B1 0
101 *1726:S0 *1727:A1 0.000128154
102 *1726:S0 *1727:B1 0
103 *1726:S0 *1742:S1 0.000221815
104 *1726:S0 *1778:A1 0.000140933
105 *1726:S0 *1913:CLK 9.95474e-05
106 *1726:S0 *1939:CLK 4.56437e-05
107 *1726:S0 *2094:A 0.000180072
108 *1726:S0 *408:70 0.000137983
109 *1726:S0 *410:24 0
110 *1726:S0 *417:87 1.69021e-05
111 *1726:S0 *425:44 0.000122935
112 *1726:S0 *452:14 0.000106542
113 *1726:S0 *452:16 0.000260962
114 *1726:S0 *452:20 8.11028e-06
115 *1728:S0 *408:142 0.00035944
116 *1734:S0 *416:22 0.000618832
117 *1734:S0 *416:66 0.000664302
118 *1734:S0 *436:77 0.000947864
119 *1736:S0 *1736:S1 7.47183e-05
120 *1736:S0 *426:32 1.40849e-05
121 *1736:S0 *455:20 3.88322e-05
122 *1736:S0 *455:31 9.16013e-05
123 *1736:S0 *455:42 0.000120402
124 *1736:S0 *455:55 8.2958e-06
125 *1737:S0 *1840:A0 0
126 *1737:S0 *453:70 0.000143297
127 *1740:S0 *1789:A0 1.21258e-05
128 *1745:S0 *454:53 5.41794e-05
129 *407:12 *1769:A0 1.69961e-05
130 *407:18 *1939:CLK 0.000199698
131 *407:51 *1780:A1 0.000120111
132 *407:51 *1947:CLK 5.33005e-05
133 *407:51 *410:49 0.000112298
134 *407:51 *452:150 0.000224608
135 *407:61 *1933:CLK 6.26276e-05
136 *407:61 *2073:A 3.61417e-05
137 *407:61 *421:10 6.86693e-05
138 *407:69 *408:484 0.000104267
139 *407:71 *1631:S1 9.56151e-05
140 *407:167 *454:12 7.22594e-05
141 *407:167 *454:14 0.000115467
142 *407:167 *454:16 0.000260993
143 *407:167 *454:20 0.00032737
144 *407:234 *409:52 0.000156679
145 *407:234 *452:22 0.000103032
146 *407:234 *452:32 0.000274375
147 *407:248 *1716:S1 3.67257e-05
148 *407:248 *408:117 0.000119734
149 *407:248 *409:52 0.000282742
150 *407:248 *412:182 0
151 *407:265 *1794:A_N 0
152 *407:265 *1804:A 0
153 *407:265 *1841:C 0
154 *407:265 *411:76 0
155 *407:265 *411:94 0
156 *407:265 *411:111 0
157 *407:265 *416:96 0
158 *407:265 *451:141 0.000288564
159 *407:285 *1745:S1 3.32631e-05
160 *407:285 *408:216 4.35131e-05
161 *407:285 *408:239 2.04866e-05
162 *407:289 *1745:S1 6.05161e-06
163 *407:293 *2051:CLK 5.06983e-05
164 *407:293 *2097:A 1.92905e-05
165 *407:295 *416:45 0
166 *407:311 *2026:CLK 9.41642e-05
167 *407:311 *416:45 0
168 *407:311 *436:133 0.000119769
169 *407:373 *2080:A 3.19058e-05
170 *407:373 *416:22 0.000546257
171 *407:373 *416:45 0
172 *407:373 *436:77 0.000522077
173 *407:427 *2037:CLK 1.58163e-05
174 *407:439 *430:67 6.22643e-05
175 *407:449 *2082:A 0.000703316
176 *407:449 *429:10 4.9888e-05
177 *407:463 *2016:CLK 3.47797e-05
178 *407:463 *2041:CLK 2.27416e-05
179 *407:463 *408:207 8.71869e-05
180 *407:463 *408:216 3.67452e-05
181 *407:467 *2016:CLK 2.84862e-05
182 *407:624 *1688:A 8.14438e-05
183 *1631:A2 *407:71 2.6869e-05
184 *1631:A2 *407:75 4.87953e-05
185 *1631:A2 *407:89 0.000172091
186 *1631:A3 *407:75 3.06878e-06
187 *1632:A2 *407:69 0.000130419
188 *1632:A2 *407:71 0.000917786
189 *1633:A3 *1633:S0 3.17067e-05
190 *1634:A0 *1634:S0 4.35421e-05
191 *1634:A3 *1634:S0 0.000135028
192 *1636:B1 *1629:S0 0.000333853
193 *1636:B2 *1629:S0 0.000250201
194 *1637:A0 *1637:S0 5.33005e-05
195 *1637:A1 *1637:S0 5.52238e-05
196 *1639:A2 *1639:S0 8.61258e-05
197 *1642:A1 *1642:S0 3.57366e-05
198 *1642:A1 *407:449 0.000117543
199 *1642:A2 *407:463 0.000264144
200 *1642:A3 *407:463 0.000122101
201 *1643:A1 *1642:S0 2.27416e-05
202 *1643:A1 *407:449 3.61629e-06
203 *1643:A1 *407:463 1.40131e-05
204 *1644:B1 *1744:S0 0
205 *1645:A2 *407:69 0
206 *1645:A3 *407:61 3.57366e-05
207 *1646:A *407:167 0
208 *1647:A0 *1647:S0 3.23206e-05
209 *1647:A1 *1647:S0 0.00017684
210 *1647:A3 *1647:S0 0
211 *1648:A2 *1647:S0 1.92789e-05
212 *1649:A2 *1649:S0 1.58163e-05
213 *1649:A3 *1649:S0 5.33005e-05
214 *1652:B1 *407:69 0
215 *1653:A2 *1653:S0 0.000103094
216 *1657:A2 *407:293 1.86687e-05
217 *1657:A2 *407:295 0
218 *1658:A1 *1658:S0 5.48674e-05
219 *1658:A1 *1737:S0 6.39901e-05
220 *1658:A2 *1650:S0 2.39148e-05
221 *1658:A2 *1737:S0 0.00012401
222 *1658:A2 *407:336 0.000171368
223 *1658:A3 *1658:S0 5.49489e-05
224 *1682:B *407:6 0.000142856
225 *1682:B *407:611 0.000230155
226 *1684:A *1685:B 1.19402e-05
227 *1684:A *1686:A1 5.52302e-05
228 *1684:A *407:624 2.34204e-05
229 *1685:C *1685:B 0
230 *1687:B *1685:B 2.82057e-05
231 *1688:B *1683:A 0.000142856
232 *1716:A0 *1639:S0 4.01768e-05
233 *1716:A0 *1716:S0 3.34366e-05
234 *1716:A1 *407:265 0
235 *1716:A2 *1639:S0 4.16996e-05
236 *1716:A2 *1716:S0 9.60939e-05
237 *1716:A2 *407:248 1.19959e-05
238 *1716:A3 *407:248 2.79421e-05
239 *1717:B *407:248 9.99586e-05
240 *1719:A2 *1718:S0 5.56205e-05
241 *1719:A2 *407:234 5.41794e-05
242 *1719:A2 *407:248 0.000168794
243 *1721:A0 *1721:S0 4.08637e-05
244 *1721:A0 *407:449 5.71472e-05
245 *1721:A0 *407:517 0.000129515
246 *1721:A1 *407:439 0.000107431
247 *1721:A1 *407:523 0
248 *1722:A0 *1720:S0 2.11419e-05
249 *1723:B2 *407:248 0.000162849
250 *1724:A0 *1726:S0 3.50327e-05
251 *1724:A2 *407:51 2.47753e-05
252 *1728:A2 *1728:S0 1.59935e-05
253 *1729:A2 *407:427 0
254 *1729:A3 *407:285 0.000254565
255 *1729:A3 *407:415 0.000140933
256 *1731:A1 *1685:B 6.8646e-06
257 *1732:A2 *1732:S0 5.62136e-05
258 *1732:A3 *1732:S0 5.49544e-05
259 *1736:A1 *1736:S0 9.18348e-05
260 *1737:A0 *1737:S0 5.65955e-05
261 *1737:A3 *1737:S0 5.49489e-05
262 *1740:A0 *407:167 0
263 *1740:A1 *407:167 0
264 *1742:A1 *1629:S0 9.25014e-06
265 *1742:A1 *407:55 0.000226513
266 *1742:A2 *407:55 0.000297975
267 *1742:A2 *407:57 5.95522e-05
268 *1745:A2 *1745:S0 5.33005e-05
269 *1745:A2 *407:289 0.000150294
270 *1745:A2 *407:293 0.000386121
271 *1746:A1 *1744:S0 0.000714097
272 *1746:A1 *407:285 3.2924e-05
273 *1752:A1 *1637:S0 0.00021845
274 *1752:A1 *1732:S0 9.11048e-06
275 *1757:S *1653:S0 0.00071967
276 *1762:A0 *407:57 2.17421e-05
277 *1765:S *1655:S0 0
278 *1769:A1 *407:12 1.33343e-05
279 *1769:A1 *407:18 0.000103211
280 *1769:S *407:12 0.000136951
281 *1772:A1 *1629:S0 9.25014e-06
282 *1774:S *407:51 0.000224669
283 *1774:S *407:167 2.08721e-05
284 *1786:A1 *407:265 1.69115e-05
285 *1789:S *1647:S0 3.76337e-05
286 *1791:S *1637:S0 0
287 *1795:A0 *1639:S0 2.75742e-05
288 *1797:S *1637:S0 0
289 *1798:A0 *407:167 0
290 *1806:S *407:285 0
291 *1808:A1 *1744:S0 5.16396e-05
292 *1809:S *407:463 0
293 *1816:A0 *1637:S0 1.76039e-05
294 *1816:A0 *407:89 0
295 *1818:A0 *407:89 0
296 *1819:A0 *1637:S0 8.47107e-05
297 *1826:S *1634:S0 0
298 *1826:S *1736:S0 0
299 *1833:A1 *407:439 0.000134748
300 *1833:S *407:427 3.79104e-05
301 *1833:S *407:439 3.56119e-05
302 *1834:A1 *407:265 0
303 *1837:A1 *1634:S0 1.19402e-05
304 *1840:A1 *1737:S0 0
305 *1842:S *407:439 0.000128154
306 *1844:A0 *1737:S0 0.000154937
307 *1855:A1 *1736:S0 1.95646e-05
308 *1855:S *1736:S0 5.41794e-05
309 *1860:S *1728:S0 0.000394969
310 *1860:S *407:427 2.38769e-05
311 *1862:S *1737:S0 0
312 *1867:A0 *407:311 0.000196497
313 *1871:S *407:295 0.000146139
314 *1871:S *407:311 9.03745e-05
315 *1876:A1 *407:295 9.25014e-06
316 *1876:A1 *407:373 0.000118903
317 *1878:A1 *407:234 7.92879e-05
318 *1894:D *407:265 0
319 *1896:D *407:89 0.000149372
320 *1916:D *1629:S0 0
321 *1916:D *407:51 8.91726e-05
322 *1931:D *407:51 3.71967e-05
323 *1933:D *407:61 4.50966e-05
324 *1933:D *407:167 5.33978e-05
325 *1941:D *1629:S0 0
326 *1948:D *1734:S0 0.000312022
327 *1949:D *407:51 0.000336135
328 *1962:D *1639:S0 0.000210814
329 *1975:D *1633:S0 0
330 *1979:D *1726:S0 5.01213e-05
331 *1982:D *1653:S0 7.6644e-05
332 *1985:D *1653:S0 0
333 *1990:D *1633:S0 0.000153054
334 *2003:D *407:439 0
335 *2004:D *407:265 0.000123295
336 *2004:D *407:427 0
337 *2006:D *1745:S0 2.84398e-05
338 *2007:D *1634:S0 0
339 *2009:D *1650:S0 0.000439641
340 *2010:D *1737:S0 2.05938e-05
341 *2016:D *407:463 3.69047e-06
342 *2016:D *407:467 7.32903e-05
343 *2026:D *407:311 0.000275631
344 *2037:D *407:427 4.14968e-05
345 *2040:D *1634:S0 0.00027095
346 *2040:D *1736:S0 0.000267814
347 *2042:D *1650:S0 0.000324991
348 *2043:D *407:311 0.00010038
349 *2051:D *407:293 4.52477e-05
350 *2051:D *407:295 0
351 *2051:D *407:373 0
352 *2061:D *407:439 0.000141981
353 *29:18 *407:51 0.000239326
354 *164:34 *407:167 0.000324306
355 *164:73 *1629:S0 0
356 *174:14 *1633:S0 0
357 *216:22 *1683:A 0
358 *216:37 *1685:B 0
359 *216:37 *407:624 0
360 *220:8 *1685:B 8.79872e-05
361 *231:24 *1718:S0 5.33005e-05
362 *231:24 *407:234 0.000196262
363 *239:12 *407:427 0.000106403
364 *239:12 *407:439 0.000218726
365 *262:28 *407:234 0.000135986
366 *262:115 *1653:S0 0.00012401
367 *262:115 *407:89 0.000591664
368 *263:32 *1639:S0 0.000380737
369 *263:55 *1655:S0 0
370 *263:110 *407:51 0.000227526
371 *266:19 *1726:S0 0.000168055
372 *266:19 *407:18 0.00027025
373 *266:19 *407:248 0.000639331
374 *266:35 *1647:S0 0.000149105
375 *266:35 *1740:S0 2.59355e-05
376 *266:53 *1647:S0 0.000248016
377 *267:71 *407:51 8.12662e-05
378 *267:87 *407:167 0
379 *269:8 *407:265 0
380 *269:8 *407:427 0
381 *269:12 *407:439 0
382 *269:12 *407:523 0
383 *269:61 *407:285 0.000163799
384 *269:61 *407:415 4.8843e-05
385 *269:77 *407:285 0.000320024
386 *269:141 *1737:S0 4.14613e-05
387 *270:16 *407:248 8.1366e-05
388 *270:91 *407:18 3.80808e-05
389 *272:84 *1744:S0 0.000124861
390 *273:8 *407:265 0
391 *273:12 *407:265 0
392 *273:46 *1744:S0 5.41797e-05
393 *273:46 *407:285 7.0758e-05
394 *274:20 *407:439 3.93986e-05
395 *275:34 *1641:S0 4.58976e-05
396 *275:34 *1720:S0 4.58194e-05
397 *275:44 *1641:S0 0.000570922
398 *276:22 *407:427 1.50771e-05
399 *276:61 *407:311 0.000351679
400 *277:38 *407:373 2.79527e-05
401 *278:94 *407:439 0.000123288
402 *278:102 *1720:S0 2.09897e-05
403 *278:102 *407:439 0
404 *278:102 *407:523 0.00102872
405 *300:10 *1637:S0 0
406 *304:12 *1685:B 0.000177941
407 *309:14 *407:69 0
408 *315:10 *1629:S0 5.13731e-05
409 *318:10 *1655:S0 0
410 *320:6 *407:51 3.61629e-06
411 *355:10 *1736:S0 1.08359e-05
412 *368:10 *407:285 0
413 *369:10 *1737:S0 2.89016e-05
414 *371:10 *1634:S0 4.35048e-05
415 *371:10 *407:467 2.05418e-05
416 *373:10 *1650:S0 0
417 *377:10 *1737:S0 1.58435e-05
418 *388:12 *407:463 0.000100969
419 *393:10 *1637:S0 7.17932e-05
420 *395:10 *407:89 0
421 *396:14 *1637:S0 2.59004e-05
422 *399:10 *407:265 0
423 *401:12 *407:89 0
*RES
1 *2027:Q *407:4 9.3 
2 *407:4 *407:6 2.17857 
3 *407:6 *407:12 5.08929 
4 *407:12 *407:18 10.1429 
5 *407:18 *407:20 4.5 
6 *407:20 *1724:S0 9.3 
7 *407:20 *407:51 40.3929 
8 *407:51 *407:55 3.83929 
9 *407:55 *407:57 5.05357 
10 *407:57 *407:61 11.6429 
11 *407:61 *407:69 16.5536 
12 *407:69 *407:71 12.8571 
13 *407:71 *407:75 2.08929 
14 *407:75 *407:89 20.2679 
15 *407:89 *1637:S0 25.7286 
16 *407:89 *1732:S0 15.0679 
17 *407:75 *1631:S0 9.3 
18 *407:71 *1653:S0 32.8893 
19 *407:69 *1655:S0 23.5857 
20 *407:61 *1645:S0 9.3 
21 *407:57 *407:167 32.9107 
22 *407:167 *1647:S0 23.7107 
23 *407:167 *1740:S0 9.83571 
24 *407:55 *1629:S0 30.7286 
25 *407:51 *1742:S0 9.3 
26 *407:18 *1726:S0 41.4429 
27 *407:12 *407:234 14.3393 
28 *407:234 *407:248 23.9643 
29 *407:248 *1639:S0 27.8357 
30 *407:248 *407:261 4.5 
31 *407:261 *407:265 28 
32 *407:265 *407:285 26.6607 
33 *407:285 *407:289 7.5 
34 *407:289 *407:293 22.6964 
35 *407:293 *407:295 3.76786 
36 *407:295 *407:311 26.0357 
37 *407:311 *1737:S0 40.1036 
38 *407:311 *407:336 2.25 
39 *407:336 *1658:S0 14.3357 
40 *407:336 *1650:S0 28.6929 
41 *407:295 *1657:S0 13.8 
42 *407:293 *407:373 10.3036 
43 *407:373 *1649:S0 14.3357 
44 *407:373 *1734:S0 30.3179 
45 *407:289 *1745:S0 19.5679 
46 *407:285 *1744:S0 23.0321 
47 *407:265 *407:415 1.35714 
48 *407:415 *407:427 23.8929 
49 *407:427 *407:439 27.5714 
50 *407:439 *407:449 13.4464 
51 *407:449 *407:463 25.0714 
52 *407:463 *407:467 10.375 
53 *407:467 *1736:S0 32.1214 
54 *407:467 *1634:S0 18.6214 
55 *407:463 *1633:S0 28.0679 
56 *407:449 *1642:S0 10.5679 
57 *407:439 *407:517 1.35714 
58 *407:517 *407:523 22.1786 
59 *407:523 *1641:S0 18.8714 
60 *407:523 *1720:S0 27.8921 
61 *407:517 *1721:S0 9.83571 
62 *407:427 *1728:S0 23.1214 
63 *407:415 *1729:S0 9.3 
64 *407:261 *1716:S0 16.0857 
65 *407:234 *1718:S0 15.175 
66 *407:6 *1682:A 9.3 
67 *407:4 *407:611 8.33929 
68 *407:611 *1683:A 17.4071 
69 *407:611 *407:624 2.25 
70 *407:624 *1686:A1 15.5679 
71 *407:624 *1685:B 20.3 
*END

*D_NET *408 0.0881579
*CONN
*I *1685:A I *D sky130_fd_sc_hd__and3_1
*I *1686:B1 I *D sky130_fd_sc_hd__a21oi_1
*I *1688:A I *D sky130_fd_sc_hd__xnor2_1
*I *1740:S1 I *D sky130_fd_sc_hd__mux4_1
*I *1724:S1 I *D sky130_fd_sc_hd__mux4_1
*I *1718:S1 I *D sky130_fd_sc_hd__mux4_1
*I *1629:S1 I *D sky130_fd_sc_hd__mux4_1
*I *1655:S1 I *D sky130_fd_sc_hd__mux4_1
*I *1647:S1 I *D sky130_fd_sc_hd__mux4_1
*I *1653:S1 I *D sky130_fd_sc_hd__mux4_1
*I *1645:S1 I *D sky130_fd_sc_hd__mux4_1
*I *1631:S1 I *D sky130_fd_sc_hd__mux4_1
*I *1732:S1 I *D sky130_fd_sc_hd__mux4_1
*I *1637:S1 I *D sky130_fd_sc_hd__mux4_1
*I *1734:S1 I *D sky130_fd_sc_hd__mux4_1
*I *1728:S1 I *D sky130_fd_sc_hd__mux4_1
*I *1721:S1 I *D sky130_fd_sc_hd__mux4_1
*I *1720:S1 I *D sky130_fd_sc_hd__mux4_1
*I *1641:S1 I *D sky130_fd_sc_hd__mux4_1
*I *1744:S1 I *D sky130_fd_sc_hd__mux4_1
*I *1639:S1 I *D sky130_fd_sc_hd__mux4_1
*I *1649:S1 I *D sky130_fd_sc_hd__mux4_1
*I *1657:S1 I *D sky130_fd_sc_hd__mux4_1
*I *1650:S1 I *D sky130_fd_sc_hd__mux4_1
*I *1658:S1 I *D sky130_fd_sc_hd__mux4_1
*I *1737:S1 I *D sky130_fd_sc_hd__mux4_1
*I *1745:S1 I *D sky130_fd_sc_hd__mux4_1
*I *1642:S1 I *D sky130_fd_sc_hd__mux4_1
*I *1634:S1 I *D sky130_fd_sc_hd__mux4_1
*I *1633:S1 I *D sky130_fd_sc_hd__mux4_1
*I *1736:S1 I *D sky130_fd_sc_hd__mux4_1
*I *1729:S1 I *D sky130_fd_sc_hd__mux4_1
*I *1716:S1 I *D sky130_fd_sc_hd__mux4_1
*I *1742:S1 I *D sky130_fd_sc_hd__mux4_1
*I *1726:S1 I *D sky130_fd_sc_hd__mux4_1
*I *2028:Q O *D sky130_fd_sc_hd__dfrtp_4
*CAP
1 *1685:A 2.7652e-05
2 *1686:B1 7.12729e-05
3 *1688:A 0.000264231
4 *1740:S1 0.00173043
5 *1724:S1 4.76687e-05
6 *1718:S1 0
7 *1629:S1 1.72258e-05
8 *1655:S1 0
9 *1647:S1 0.00044225
10 *1653:S1 0.000715412
11 *1645:S1 0
12 *1631:S1 0.000662408
13 *1732:S1 0
14 *1637:S1 0.000533794
15 *1734:S1 0.000128989
16 *1728:S1 0
17 *1721:S1 0
18 *1720:S1 0.000327683
19 *1641:S1 0.000171446
20 *1744:S1 2.23413e-05
21 *1639:S1 0.000498242
22 *1649:S1 4.70982e-05
23 *1657:S1 0
24 *1650:S1 0.000637871
25 *1658:S1 5.9338e-05
26 *1737:S1 0.000560875
27 *1745:S1 3.96229e-05
28 *1642:S1 0
29 *1634:S1 0.000344568
30 *1633:S1 0
31 *1736:S1 0.000982859
32 *1729:S1 0.000180142
33 *1716:S1 5.02054e-05
34 *1742:S1 0.000995722
35 *1726:S1 3.44161e-05
36 *2028:Q 0
37 *408:574 0.00050314
38 *408:570 0.000715817
39 *408:493 0.00136444
40 *408:484 0.000920352
41 *408:433 0.000623512
42 *408:431 0.00182612
43 *408:402 0.00167583
44 *408:396 0.00118641
45 *408:394 0.00133648
46 *408:384 0.00262686
47 *408:374 0.00127316
48 *408:278 0.000902943
49 *408:257 0.00153786
50 *408:249 0.00125898
51 *408:247 0.00165825
52 *408:243 0.00181357
53 *408:239 0.000866326
54 *408:216 0.00150696
55 *408:207 0.00120224
56 *408:158 0.00109948
57 *408:154 0.00126423
58 *408:150 0.00145464
59 *408:148 0.00162233
60 *408:146 0.00179494
61 *408:142 0.000857421
62 *408:134 0.00102017
63 *408:117 0.0019365
64 *408:90 0.00190909
65 *408:80 0.00122755
66 *408:70 0.000910655
67 *408:49 0.00155073
68 *408:45 0.00225684
69 *408:30 0.000771982
70 *408:4 0.001105
71 *1629:S1 *1781:A1 9.25014e-06
72 *1631:S1 *1937:CLK 0.0003799
73 *1631:S1 *1982:CLK 0.000197045
74 *1631:S1 *433:122 0.000175084
75 *1634:S1 *426:83 0
76 *1637:S1 *1755:A0 1.62539e-05
77 *1639:S1 *1782:A1 0
78 *1639:S1 *456:84 0.000414742
79 *1641:S1 *429:46 0
80 *1647:S1 *1654:A 0
81 *1685:A *409:16 5.71472e-05
82 *1720:S1 *430:14 0.000245342
83 *1724:S1 *1947:CLK 5.03772e-05
84 *1729:S1 *1806:A0 6.05161e-06
85 *1734:S1 *434:12 7.92879e-05
86 *1736:S1 *455:20 8.23597e-06
87 *1737:S1 *453:90 0.000692354
88 *1740:S1 *1897:CLK 0.000197977
89 *1740:S1 *1955:CLK 4.465e-05
90 *1740:S1 *1963:CLK 9.22103e-06
91 *1740:S1 *424:71 7.83659e-05
92 *1742:S1 *1949:CLK 0.000112648
93 *1742:S1 *2094:A 1.38323e-05
94 *1742:S1 *425:16 3.56826e-05
95 *1742:S1 *425:40 9.04838e-05
96 *1744:S1 *456:84 0
97 *408:30 *1913:CLK 0.000360094
98 *408:30 *417:91 0.000151318
99 *408:30 *452:14 2.47093e-05
100 *408:45 *452:14 2.04866e-05
101 *408:45 *452:16 7.6644e-05
102 *408:49 *409:38 0.000198691
103 *408:49 *409:52 0.00012101
104 *408:49 *452:16 0.000678945
105 *408:49 *452:20 5.33072e-05
106 *408:70 *1719:B1 0
107 *408:70 *452:20 6.98794e-05
108 *408:80 *1719:B1 0
109 *408:80 *416:120 0.000137494
110 *408:80 *452:20 0.000103041
111 *408:80 *452:22 0.00027095
112 *408:80 *452:32 0.000151333
113 *408:90 *411:126 1.70184e-05
114 *408:90 *416:96 3.54569e-05
115 *408:90 *416:105 5.25998e-05
116 *408:90 *416:120 7.73184e-05
117 *408:90 *450:196 9.92896e-05
118 *408:117 *1767:A_N 0.000196269
119 *408:117 *412:158 4.47843e-05
120 *408:117 *450:18 0.000158805
121 *408:117 *450:22 0.000173804
122 *408:117 *450:96 1.17968e-05
123 *408:117 *450:107 0.000122651
124 *408:117 *450:118 6.6797e-05
125 *408:117 *450:131 6.8646e-06
126 *408:117 *450:161 5.33882e-05
127 *408:117 *451:115 2.68445e-05
128 *408:117 *452:32 0
129 *408:134 *2020:CLK 5.52238e-05
130 *408:142 *2082:A 0.000214342
131 *408:142 *416:184 0.000740712
132 *408:146 *2082:A 5.83304e-05
133 *408:146 *451:66 0
134 *408:146 *451:75 0
135 *408:148 *1869:A0 2.95726e-05
136 *408:154 *1828:A1 0.000268692
137 *408:207 *429:46 0.000457969
138 *408:216 *2004:CLK 0
139 *408:239 *454:53 0.000128154
140 *408:239 *456:84 0
141 *408:247 *2022:CLK 0.00021529
142 *408:249 *416:45 0.000408144
143 *408:257 *416:45 2.11419e-05
144 *408:384 *1781:A1 0.000198691
145 *408:384 *2052:CLK 5.23142e-05
146 *408:402 *434:12 2.49484e-05
147 *408:402 *436:69 0
148 *408:431 *1779:A1 0.000143896
149 *408:431 *2087:A 1.19402e-05
150 *408:431 *434:12 5.03772e-05
151 *408:431 *453:164 0.000371938
152 *408:484 *2090:A 0.000400867
153 *408:570 *409:8 0
154 *408:570 *409:16 0
155 *408:570 *417:91 0.0001399
156 *1629:A1 *408:394 9.05384e-05
157 *1629:A2 *1629:S1 2.49484e-05
158 *1629:A2 *408:384 4.78056e-05
159 *1629:A2 *408:394 1.14548e-05
160 *1629:A3 *408:394 5.74633e-05
161 *1633:A3 *1736:S1 0.000123104
162 *1633:A3 *408:158 2.19684e-05
163 *1633:S0 *1634:S1 0
164 *1633:S0 *408:158 0
165 *1636:B1 *408:384 3.92169e-05
166 *1637:A2 *1637:S1 2.71557e-05
167 *1637:A3 *1637:S1 1.73875e-05
168 *1637:S0 *1637:S1 0
169 *1641:A2 *1641:S1 3.17067e-05
170 *1642:A1 *408:216 0
171 *1642:A2 *408:207 0.000125724
172 *1642:A2 *408:216 1.02504e-05
173 *1644:B1 *1639:S1 0
174 *1644:B1 *408:239 0.000371511
175 *1645:A2 *408:484 0.000125724
176 *1645:A2 *408:493 1.02504e-05
177 *1646:B *1647:S1 4.98872e-05
178 *1646:B *408:484 4.46186e-06
179 *1646:B *408:493 0.000185446
180 *1648:A2 *1647:S1 0
181 *1649:A2 *1649:S1 1.69115e-05
182 *1649:A2 *408:249 2.8266e-06
183 *1650:S0 *1650:S1 0
184 *1651:A0 *408:247 4.45768e-06
185 *1652:B1 *408:402 9.53173e-05
186 *1652:B1 *408:484 0.000190086
187 *1653:S0 *1653:S1 4.81056e-05
188 *1654:B *1653:S1 0.000397527
189 *1655:A2 *408:394 0
190 *1655:A3 *408:402 2.54101e-05
191 *1655:S0 *408:484 0
192 *1656:A2 *408:394 5.26048e-05
193 *1659:A1 *408:278 6.86693e-05
194 *1683:A *1688:A 9.56968e-05
195 *1685:B *1688:A 3.63298e-05
196 *1685:B *408:570 0
197 *1685:B *408:574 0.00034321
198 *1686:A1 *1686:B1 5.33433e-05
199 *1718:A3 *408:384 9.58508e-05
200 *1719:A1 *1688:A 0
201 *1719:A1 *408:574 0
202 *1719:A2 *408:384 0.000167998
203 *1721:A2 *408:146 3.25078e-05
204 *1721:A3 *408:146 8.67597e-05
205 *1726:A0 *408:30 1.91512e-05
206 *1726:A2 *408:30 1.66955e-05
207 *1726:A3 *408:30 5.80706e-06
208 *1726:A3 *408:45 0.000103898
209 *1726:S0 *1742:S1 0.000221815
210 *1726:S0 *408:70 0.000137983
211 *1727:A2 *408:30 0.000405996
212 *1728:S0 *408:142 0.00035944
213 *1730:A1 *408:134 0.000127051
214 *1731:A1 *408:570 0.000272371
215 *1731:A1 *408:574 3.92757e-05
216 *1732:A2 *1637:S1 5.66157e-05
217 *1734:A2 *408:431 0.000183344
218 *1736:A3 *1736:S1 4.1331e-06
219 *1736:S0 *1736:S1 7.47183e-05
220 *1737:A0 *1737:S1 2.59355e-05
221 *1741:B *1740:S1 0
222 *1744:A2 *1744:S1 5.83304e-05
223 *1744:A2 *408:239 9.91086e-05
224 *1744:A3 *408:243 9.76946e-05
225 *1744:A3 *408:247 3.14048e-05
226 *1746:A1 *1745:S1 2.89016e-05
227 *1746:A1 *408:239 7.6644e-05
228 *1759:A0 *408:80 9.41642e-05
229 *1765:A0 *408:484 0
230 *1769:S *408:80 0.000392997
231 *1770:S *408:402 7.79781e-06
232 *1775:S *408:402 0.000128562
233 *1779:A0 *408:431 0.000200406
234 *1780:A0 *1742:S1 0.000166771
235 *1781:A0 *408:384 3.3717e-05
236 *1784:A0 *408:394 0.000111327
237 *1787:S *1740:S1 2.41649e-05
238 *1792:A1 *1647:S1 0
239 *1809:S *408:216 0
240 *1813:D *408:90 0.000173804
241 *1815:S *1740:S1 0.000105833
242 *1815:S *408:45 4.02462e-05
243 *1816:A0 *408:431 6.9545e-05
244 *1816:A0 *408:433 5.98316e-05
245 *1817:A0 *1740:S1 0.000312215
246 *1820:S *1740:S1 0
247 *1828:S *408:148 0.00033297
248 *1828:S *408:150 0.00021692
249 *1828:S *408:154 0.000340405
250 *1835:S *1737:S1 0.000168549
251 *1838:A1 *408:216 0
252 *1839:S *1650:S1 0.000939369
253 *1841:D *408:117 7.60306e-05
254 *1855:A1 *1736:S1 3.97677e-05
255 *1855:S *1736:S1 5.33005e-05
256 *1860:S *408:142 0
257 *1863:S *408:216 0.000126439
258 *1864:S *408:207 0
259 *1870:S *408:134 6.05161e-06
260 *1875:S *408:249 0
261 *1883:S *408:484 0
262 *1888:S *1737:S1 0.000289915
263 *1896:D *1637:S1 0.000137846
264 *1913:D *408:30 1.65558e-05
265 *1913:D *408:570 0.000439649
266 *1916:D *1740:S1 0
267 *1945:D *408:402 0.000291669
268 *1945:D *408:484 0.000122951
269 *1948:D *408:431 0
270 *1949:D *1742:S1 0.000139907
271 *1950:D *408:384 1.48385e-05
272 *1955:D *1740:S1 0.000214302
273 *1962:D *1639:S1 0
274 *1963:D *1740:S1 0.000212772
275 *1983:D *1637:S1 0.000128146
276 *1984:D *1647:S1 0
277 *1985:D *1653:S1 2.84026e-05
278 *2008:D *408:216 0.000103267
279 *2016:D *1634:S1 0
280 *2020:D *408:134 0.000272689
281 *2022:D *408:247 0.000107553
282 *2038:D *1737:S1 0.000346639
283 *2041:D *408:207 7.8327e-05
284 *2044:D *1720:S1 0
285 *2046:D *1736:S1 4.51691e-05
286 *2052:D *408:384 0.000114656
287 *2053:D *1742:S1 5.18845e-05
288 *2056:D *408:394 0.000200742
289 *174:14 *1634:S1 0.000687969
290 *174:14 *1736:S1 0.000181165
291 *174:14 *408:158 0.000249486
292 *176:12 *1639:S1 0.00120472
293 *181:14 *1641:S1 0
294 *190:12 *408:402 0
295 *231:45 *408:394 9.57273e-06
296 *253:10 *1649:S1 2.19778e-05
297 *253:10 *1734:S1 5.35423e-05
298 *253:10 *408:249 0.000319544
299 *253:10 *408:257 6.27272e-06
300 *253:10 *408:402 9.64695e-05
301 *262:28 *408:49 0.000179254
302 *262:28 *408:117 1.21955e-05
303 *262:92 *1637:S1 0
304 *262:115 *1631:S1 2.46911e-05
305 *262:115 *1637:S1 6.87691e-05
306 *264:30 *408:431 1.21258e-05
307 *265:34 *1629:S1 2.72545e-05
308 *266:19 *408:45 0
309 *266:19 *408:49 0
310 *266:19 *408:90 9.87791e-05
311 *266:19 *408:117 6.47816e-05
312 *266:35 *1740:S1 4.87854e-05
313 *266:35 *408:30 2.47093e-05
314 *266:35 *408:45 2.19778e-05
315 *266:65 *1647:S1 0
316 *268:12 *408:117 0.00012401
317 *268:27 *408:117 1.17968e-05
318 *269:77 *408:216 0
319 *269:77 *408:239 0.000368769
320 *270:34 *408:431 6.87574e-05
321 *270:47 *1631:S1 9.09134e-05
322 *270:91 *408:80 0.000385717
323 *270:91 *408:90 0.00038571
324 *270:105 *1740:S1 0.000186773
325 *273:46 *408:216 0
326 *274:10 *408:117 0.000389146
327 *275:16 *408:134 0.000172546
328 *275:34 *1720:S1 0
329 *275:34 *408:142 0.000556123
330 *275:34 *408:146 0.000708622
331 *276:16 *408:117 0.00100218
332 *276:61 *408:216 0.000103974
333 *276:117 *408:207 0
334 *276:117 *408:216 0
335 *277:38 *408:249 0
336 *277:92 *1720:S1 6.05161e-06
337 *277:92 *408:134 0.000177941
338 *277:102 *1720:S1 0.000139087
339 *277:102 *408:148 5.33433e-05
340 *310:10 *408:402 0
341 *314:12 *1742:S1 4.87854e-05
342 *327:6 *408:384 3.14163e-05
343 *328:10 *1742:S1 5.33005e-05
344 *331:6 *408:394 3.81416e-06
345 *337:10 *1736:S1 0
346 *348:10 *1641:S1 0
347 *363:12 *1634:S1 5.83304e-05
348 *388:12 *408:207 0
349 *392:10 *408:30 9.41642e-05
350 *407:69 *408:484 0.000104267
351 *407:71 *1631:S1 9.56151e-05
352 *407:248 *1716:S1 3.67257e-05
353 *407:248 *408:117 0.000119734
354 *407:285 *1745:S1 3.32631e-05
355 *407:285 *408:216 4.35131e-05
356 *407:285 *408:239 2.04866e-05
357 *407:289 *1745:S1 6.05161e-06
358 *407:463 *408:207 8.71869e-05
359 *407:463 *408:216 3.67452e-05
360 *407:624 *1688:A 8.14438e-05
*RES
1 *2028:Q *408:4 9.3 
2 *408:4 *408:30 35.1071 
3 *408:30 *1726:S1 14.3357 
4 *408:30 *408:45 3.82143 
5 *408:45 *408:49 14.0357 
6 *408:49 *1742:S1 25.6214 
7 *408:49 *408:70 7.80357 
8 *408:70 *408:80 26.3393 
9 *408:80 *408:90 17.6607 
10 *408:90 *1716:S1 10.2464 
11 *408:90 *408:117 39.5 
12 *408:117 *1729:S1 12.3179 
13 *408:117 *408:134 19.1786 
14 *408:134 *408:142 21.4286 
15 *408:142 *408:146 13.4286 
16 *408:146 *408:148 14.9107 
17 *408:148 *408:150 3.82143 
18 *408:150 *408:154 15.7143 
19 *408:154 *408:158 7.66071 
20 *408:158 *1736:S1 32.968 
21 *408:158 *1633:S1 9.3 
22 *408:154 *1634:S1 22.7286 
23 *408:150 *408:207 14.0893 
24 *408:207 *1642:S1 13.8 
25 *408:207 *408:216 15 
26 *408:216 *1745:S1 14.7464 
27 *408:216 *408:239 21.7143 
28 *408:239 *408:243 7.08929 
29 *408:243 *408:247 18.1786 
30 *408:247 *408:249 11.6607 
31 *408:249 *408:257 8.87339 
32 *408:257 *1737:S1 30.8 
33 *408:257 *408:278 7.91071 
34 *408:278 *1658:S1 10.2464 
35 *408:278 *1650:S1 31.925 
36 *408:249 *1657:S1 13.8 
37 *408:247 *1649:S1 15.0679 
38 *408:243 *1639:S1 33.6036 
39 *408:239 *1744:S1 14.5321 
40 *408:148 *1641:S1 21.4607 
41 *408:146 *1720:S1 24.05 
42 *408:142 *1721:S1 13.8 
43 *408:134 *1728:S1 9.3 
44 *408:80 *408:374 4.5 
45 *408:374 *408:384 23.6429 
46 *408:384 *408:394 22.6429 
47 *408:394 *408:396 4.5 
48 *408:396 *408:402 11.1071 
49 *408:402 *1734:S1 16.6929 
50 *408:402 *408:431 30.8393 
51 *408:431 *408:433 1.76786 
52 *408:433 *1637:S1 28.9071 
53 *408:433 *1732:S1 9.3 
54 *408:431 *1631:S1 33.9607 
55 *408:396 *408:484 25.2143 
56 *408:484 *1645:S1 13.8 
57 *408:484 *408:493 4.67857 
58 *408:493 *1653:S1 26.8 
59 *408:493 *1647:S1 21.5143 
60 *408:394 *1655:S1 9.3 
61 *408:384 *1629:S1 14.5321 
62 *408:374 *1718:S1 9.3 
63 *408:70 *1724:S1 14.7464 
64 *408:45 *1740:S1 47.8714 
65 *408:4 *408:570 19.3571 
66 *408:570 *408:574 8.875 
67 *408:574 *1688:A 19.4429 
68 *408:574 *1686:B1 15.1571 
69 *408:570 *1685:A 10.2643 
*END

*D_NET *409 0.0506422
*CONN
*I *1689:A I *D sky130_fd_sc_hd__and2_1
*I *1727:A1 I *D sky130_fd_sc_hd__o21a_1
*I *1741:A I *D sky130_fd_sc_hd__or2_1
*I *1648:A1 I *D sky130_fd_sc_hd__o21a_1
*I *1654:A I *D sky130_fd_sc_hd__or2_1
*I *1632:A1 I *D sky130_fd_sc_hd__o21a_1
*I *1733:A I *D sky130_fd_sc_hd__or2_1
*I *1638:A I *D sky130_fd_sc_hd__or2_1
*I *1651:S I *D sky130_fd_sc_hd__mux2_1
*I *1659:S I *D sky130_fd_sc_hd__mux2_1
*I *1635:S I *D sky130_fd_sc_hd__mux2_1
*I *1738:S I *D sky130_fd_sc_hd__mux2_1
*I *1622:A I *D sky130_fd_sc_hd__inv_2
*I *1730:S I *D sky130_fd_sc_hd__mux2_1
*I *1643:S I *D sky130_fd_sc_hd__mux2_1
*I *1722:S I *D sky130_fd_sc_hd__mux2_1
*I *1746:S I *D sky130_fd_sc_hd__mux2_1
*I *1717:A I *D sky130_fd_sc_hd__or2_1
*I *1690:A I *D sky130_fd_sc_hd__nor2_1
*I *1692:A I *D sky130_fd_sc_hd__xnor2_1
*I *2029:Q O *D sky130_fd_sc_hd__dfrtp_4
*CAP
1 *1689:A 0.000439356
2 *1727:A1 4.79718e-05
3 *1741:A 0
4 *1648:A1 0
5 *1654:A 0.000200082
6 *1632:A1 0
7 *1733:A 0.000661734
8 *1638:A 3.53701e-05
9 *1651:S 8.61686e-05
10 *1659:S 0
11 *1635:S 0.000115186
12 *1738:S 0.000624214
13 *1622:A 5.70476e-05
14 *1730:S 0
15 *1643:S 0.000607252
16 *1722:S 0.000280222
17 *1746:S 0.00120397
18 *1717:A 0
19 *1690:A 0.000119266
20 *1692:A 0
21 *2029:Q 0
22 *409:255 0.000898432
23 *409:180 0.00120911
24 *409:176 0.00133928
25 *409:174 0.00163496
26 *409:172 0.00102886
27 *409:166 0.00171182
28 *409:160 0.00133232
29 *409:154 0.00172066
30 *409:148 0.000989138
31 *409:133 0.00123731
32 *409:98 0.00139744
33 *409:94 0.00136176
34 *409:63 0.00243328
35 *409:52 0.0012683
36 *409:38 0.001772
37 *409:32 0.000828648
38 *409:16 0.000444201
39 *409:8 0.00108158
40 *409:4 0.000679603
41 *1622:A *1796:A1 0
42 *1622:A *1949:CLK 6.8646e-06
43 *1635:S *455:102 0.000113142
44 *1638:A *1943:CLK 9.90367e-05
45 *1643:S *1860:A1 0.000181752
46 *1643:S *2003:CLK 0.000188586
47 *1689:A *2028:RESET_B 0
48 *1689:A *2029:RESET_B 0.000136189
49 *1722:S *430:8 0.000225307
50 *1722:S *430:67 0.000117903
51 *1727:A1 *417:87 6.74911e-05
52 *1733:A *1775:A0 0.000140933
53 *1738:S *1974:CLK 0.000317082
54 *1738:S *455:57 2.14658e-05
55 *1738:S *455:73 0.000154765
56 *1738:S *455:102 2.89114e-05
57 *1746:S *411:70 0.000271352
58 *1746:S *411:74 0.000157409
59 *1746:S *452:32 7.83659e-05
60 *409:8 *2028:D 0
61 *409:8 *2028:RESET_B 0
62 *409:16 *2070:A 0
63 *409:32 *410:22 0.000140835
64 *409:32 *417:6 9.60939e-05
65 *409:32 *417:8 8.57023e-05
66 *409:38 *417:8 0.000183726
67 *409:38 *417:12 9.41642e-05
68 *409:52 *1938:CLK 0.00038571
69 *409:52 *422:8 0.000148182
70 *409:52 *452:20 0
71 *409:63 *452:32 0.00123941
72 *409:94 *1709:B 5.33005e-05
73 *409:94 *1749:A_N 1.92905e-05
74 *409:94 *1841:A_N 0.00014285
75 *409:94 *1841:B 6.8646e-06
76 *409:94 *411:43 0.000196269
77 *409:94 *411:64 0.000243642
78 *409:94 *411:153 0.000101545
79 *409:94 *412:106 2.60984e-05
80 *409:94 *414:29 0
81 *409:94 *416:180 0
82 *409:98 *416:180 0
83 *409:98 *416:184 0
84 *409:98 *430:67 0.000408182
85 *409:133 *425:8 9.92409e-05
86 *409:148 *1796:A1 0
87 *409:148 *425:75 0
88 *409:160 *410:49 0.000118347
89 *409:160 *410:53 9.17495e-05
90 *409:160 *410:57 4.46186e-06
91 *409:160 *424:71 0
92 *409:160 *454:16 4.46186e-06
93 *409:160 *454:20 0.000209419
94 *409:160 *454:22 0.000122324
95 *409:160 *454:26 4.03318e-05
96 *409:160 *454:28 0
97 *409:166 *2056:CLK 0
98 *409:166 *434:72 0
99 *409:166 *455:145 0
100 *409:166 *455:160 0
101 *409:172 *1773:A0 0.000150625
102 *409:172 *1943:CLK 0
103 *409:172 *434:72 0
104 *409:174 *1773:A0 0.000256842
105 *409:174 *455:102 0
106 *409:174 *456:92 0.000509464
107 *409:176 *455:102 0
108 *409:180 *428:23 0
109 *409:180 *455:102 0
110 *409:255 *1648:B1 0.000170955
111 *409:255 *424:71 0
112 *409:255 *454:16 4.98872e-05
113 *1632:A2 *409:160 2.89016e-05
114 *1632:A2 *409:166 0.000284047
115 *1644:A1 *1638:A 6.05161e-06
116 *1647:S1 *1654:A 0
117 *1648:A2 *1654:A 1.69961e-05
118 *1648:A2 *409:255 5.52302e-05
119 *1652:A2 *1654:A 0
120 *1660:B1 *409:166 0
121 *1660:B1 *409:174 0
122 *1685:A *409:16 5.71472e-05
123 *1685:B *409:16 3.40128e-05
124 *1685:C *409:16 8.90835e-05
125 *1687:B *409:16 0
126 *1689:B *409:16 0
127 *1690:B *1690:A 0.000188586
128 *1691:B *1689:A 9.24395e-05
129 *1692:B *409:16 9.90431e-05
130 *1719:A2 *409:52 2.59355e-05
131 *1719:A2 *409:63 1.98839e-05
132 *1721:A1 *1643:S 0.000225616
133 *1722:A1 *1722:S 0.000146533
134 *1726:S0 *1727:A1 0.000128154
135 *1730:A0 *409:98 0.000176883
136 *1731:B2 *409:133 0.000150447
137 *1735:A2 *1638:A 7.43578e-06
138 *1735:A2 *409:172 0.00012422
139 *1747:A1 *409:148 0.000478626
140 *1747:B2 *1622:A 0
141 *1747:B2 *409:148 0
142 *1762:S *409:133 0.000269422
143 *1763:A0 *409:166 0
144 *1775:A1 *1733:A 0.000273269
145 *1775:S *1733:A 2.14658e-05
146 *1783:S *409:166 0.000109809
147 *1796:S *409:148 0.00023978
148 *1809:A1 *1738:S 3.05475e-05
149 *1826:S *1738:S 0.000409903
150 *1837:A1 *1738:S 0.000186669
151 *1860:A0 *1722:S 0.000116545
152 *1860:S *409:98 0.000502184
153 *1878:A1 *409:52 0.000389861
154 *1880:A1 *409:160 8.09057e-05
155 *1880:S *409:160 0.000104246
156 *1882:S *409:166 3.79197e-05
157 *1882:S *409:172 0.000108218
158 *1882:S *409:174 0
159 *1913:D *409:8 0
160 *1934:D *409:166 7.8327e-05
161 *1935:D *409:174 0
162 *1941:D *409:160 0
163 *1965:D *409:255 5.71472e-05
164 *1974:D *1738:S 0.000149059
165 *1993:D *409:180 0
166 *2003:D *1643:S 1.76204e-05
167 *2007:D *1738:S 0.000108305
168 *2007:D *409:180 0
169 *2014:D *409:176 0
170 *2014:D *409:180 0
171 *2020:D *409:98 0.000182169
172 *2022:D *409:176 0
173 *2036:D *1643:S 0.000135028
174 *2056:D *409:166 0
175 *2057:D *409:174 3.0285e-05
176 *2063:D *409:176 0
177 *163:8 *1622:A 1.02504e-05
178 *163:16 *1622:A 9.25014e-06
179 *174:14 *1635:S 0.000315165
180 *197:12 *409:174 0
181 *197:12 *409:176 0
182 *197:12 *409:180 0
183 *219:6 *1690:A 4.88546e-05
184 *219:6 *409:16 1.39726e-05
185 *231:24 *409:52 0.000197977
186 *239:8 *1722:S 4.87953e-05
187 *239:12 *1746:S 3.69697e-05
188 *239:12 *409:63 0.000139787
189 *246:10 *409:94 0.000235903
190 *253:8 *1738:S 0.000495832
191 *260:8 *1746:S 3.18676e-05
192 *261:8 *409:94 4.8794e-05
193 *262:28 *409:52 0.000101444
194 *262:28 *409:63 0.00015724
195 *262:77 *1746:S 0.000105163
196 *264:8 *409:63 0.000985535
197 *266:19 *409:38 6.98669e-05
198 *266:19 *409:52 0.00115796
199 *266:53 *1654:A 0.000142856
200 *267:73 *409:148 0.00027949
201 *267:73 *409:154 0.000212611
202 *267:73 *409:255 0.000443648
203 *267:87 *409:255 5.52302e-05
204 *270:16 *409:52 1.28171e-05
205 *271:17 *409:94 0.000182868
206 *271:19 *409:94 0.000179383
207 *272:84 *409:176 0
208 *273:52 *1635:S 0.000309752
209 *273:52 *1738:S 4.18895e-05
210 *273:54 *1738:S 0.00040279
211 *274:53 *1738:S 9.57306e-05
212 *275:34 *409:98 0
213 *277:86 *409:94 0
214 *277:86 *409:98 0.00029748
215 *277:92 *409:98 2.60158e-05
216 *328:10 *409:52 0.000140361
217 *359:10 *1722:S 2.8266e-06
218 *367:6 *1643:S 0.000219711
219 *407:234 *409:52 0.000156679
220 *407:248 *409:52 0.000282742
221 *408:49 *409:38 0.000198691
222 *408:49 *409:52 0.00012101
223 *408:570 *409:8 0
224 *408:570 *409:16 0
*RES
1 *2029:Q *409:4 9.3 
2 *409:4 *409:8 8.57143 
3 *409:8 *409:16 11.0893 
4 *409:16 *1692:A 9.3 
5 *409:16 *1690:A 12.3 
6 *409:8 *409:32 11.1964 
7 *409:32 *409:38 9.64286 
8 *409:38 *409:52 30.2857 
9 *409:52 *1717:A 9.3 
10 *409:52 *409:63 20.9464 
11 *409:63 *1746:S 33.4786 
12 *409:63 *409:94 30.6964 
13 *409:94 *409:98 19.8036 
14 *409:98 *1722:S 21.5857 
15 *409:98 *1643:S 26.2821 
16 *409:94 *1730:S 9.3 
17 *409:38 *409:133 17.3393 
18 *409:133 *1622:A 14.8357 
19 *409:133 *409:148 17.4286 
20 *409:148 *409:154 10.3929 
21 *409:154 *409:160 19.125 
22 *409:160 *409:166 19.6964 
23 *409:166 *409:172 7.46429 
24 *409:172 *409:174 15 
25 *409:174 *409:176 14.6964 
26 *409:176 *409:180 11.9107 
27 *409:180 *1738:S 37.425 
28 *409:180 *1635:S 14.7821 
29 *409:176 *1659:S 13.8 
30 *409:174 *1651:S 15.1571 
31 *409:172 *1638:A 14.7464 
32 *409:166 *1733:A 24.6036 
33 *409:160 *1632:A1 9.3 
34 *409:154 *409:255 17.8929 
35 *409:255 *1654:A 22.3179 
36 *409:255 *1648:A1 9.3 
37 *409:148 *1741:A 9.3 
38 *409:32 *1727:A1 19.9429 
39 *409:4 *1689:A 26.425 
*END

*D_NET *410 0.0248228
*CONN
*I *1694:A I *D sky130_fd_sc_hd__nand2_1
*I *1693:A I *D sky130_fd_sc_hd__nor2_1
*I *1696:A I *D sky130_fd_sc_hd__xnor2_1
*I *1727:B1 I *D sky130_fd_sc_hd__o21a_1
*I *1623:A I *D sky130_fd_sc_hd__inv_2
*I *1743:B1 I *D sky130_fd_sc_hd__o21a_1
*I *1656:B1 I *D sky130_fd_sc_hd__o21a_1
*I *1648:B1 I *D sky130_fd_sc_hd__o21a_1
*I *1632:B1 I *D sky130_fd_sc_hd__o21a_1
*I *1640:B1 I *D sky130_fd_sc_hd__o21a_1
*I *1735:B1 I *D sky130_fd_sc_hd__o21a_1
*I *1719:B1 I *D sky130_fd_sc_hd__o21a_1
*I *2030:Q O *D sky130_fd_sc_hd__dfrtp_4
*CAP
1 *1694:A 0.000291137
2 *1693:A 3.04135e-05
3 *1696:A 0
4 *1727:B1 9.38427e-05
5 *1623:A 2.85385e-05
6 *1743:B1 0
7 *1656:B1 0
8 *1648:B1 0.000439391
9 *1632:B1 0
10 *1640:B1 0.000160353
11 *1735:B1 0.000144605
12 *1719:B1 0.000828686
13 *2030:Q 4.66046e-05
14 *410:88 0.00075728
15 *410:57 0.000861196
16 *410:53 0.000738691
17 *410:49 0.000976451
18 *410:43 0.000897405
19 *410:39 0.00125005
20 *410:24 0.00175755
21 *410:22 0.00096404
22 *410:16 0.000998238
23 *410:10 0.000465342
24 *410:8 0.000515975
25 *1623:A *1796:A1 2.84494e-05
26 *1648:B1 *421:10 8.33559e-05
27 *1648:B1 *421:78 0.00017096
28 *1727:B1 *417:87 0.000148196
29 *410:8 *446:151 9.90367e-05
30 *410:10 *2029:CLK 0.000143804
31 *410:10 *2029:D 3.34672e-05
32 *410:10 *417:108 5.41794e-05
33 *410:16 *417:108 0.000176234
34 *410:22 *417:6 1.92905e-05
35 *410:39 *2078:A 0.000477787
36 *410:43 *1949:CLK 1.87175e-05
37 *410:49 *1949:CLK 0.000140933
38 *410:57 *454:28 0
39 *410:88 *2055:CLK 0.000172309
40 *410:88 *421:82 5.52302e-05
41 *1629:A0 *410:57 4.25716e-05
42 *1629:S0 *410:49 4.49451e-05
43 *1629:S0 *410:53 4.43698e-05
44 *1629:S0 *410:57 0
45 *1636:B2 *410:53 0.000138005
46 *1652:A2 *1648:B1 2.89114e-05
47 *1656:A1 *410:88 0.000146523
48 *1660:A2 *1648:B1 0.000299737
49 *1660:B1 *1648:B1 0.000592915
50 *1687:B *410:22 0.000183726
51 *1691:B *410:10 0
52 *1691:B *410:16 0
53 *1694:B *1694:A 0.000158272
54 *1719:A2 *1719:B1 5.52238e-05
55 *1726:S0 *1719:B1 0
56 *1726:S0 *1727:B1 0
57 *1726:S0 *410:24 0
58 *1727:A2 *1727:B1 3.34366e-05
59 *1731:A2 *1727:B1 8.91726e-05
60 *1731:A2 *410:24 8.15939e-05
61 *1731:B2 *410:39 0.000290434
62 *1735:A1 *1640:B1 0.000261926
63 *1735:A1 *1735:B1 0.000743433
64 *1739:B2 *1640:B1 4.43256e-05
65 *1739:B2 *1735:B1 7.32955e-05
66 *1742:A1 *410:49 0
67 *1742:A3 *410:88 2.59355e-05
68 *1743:A2 *410:43 2.89114e-05
69 *1762:S *410:49 0.000311585
70 *1769:S *1719:B1 0
71 *1772:A1 *410:57 0.00041474
72 *1772:S *410:57 5.90443e-06
73 *1774:S *410:49 0.000529363
74 *1783:S *1648:B1 6.20855e-06
75 *1880:A1 *410:49 4.45163e-05
76 *1880:A1 *410:53 0.000121573
77 *1880:S *410:57 0
78 *1913:D *1727:B1 0
79 *1913:D *410:24 0
80 *1938:D *1719:B1 0.00010326
81 *1941:D *410:49 0
82 *1946:D *1719:B1 0.000144089
83 *1949:D *410:49 0.000206871
84 *2055:D *410:88 0.000147136
85 *163:8 *1623:A 2.84494e-05
86 *163:16 *410:43 1.98839e-05
87 *163:73 *410:88 0.000452891
88 *163:108 *1623:A 4.46186e-06
89 *164:8 *410:39 5.52302e-05
90 *164:8 *410:43 0.000351169
91 *164:73 *1640:B1 2.59355e-05
92 *164:86 *1640:B1 0.000175519
93 *221:8 *1693:A 5.33005e-05
94 *221:12 *1694:A 2.61337e-05
95 *221:12 *410:10 8.98897e-05
96 *224:6 *1694:A 5.71472e-05
97 *231:51 *410:57 0
98 *231:107 *410:57 0
99 *246:10 *1719:B1 0.001646
100 *246:10 *410:24 3.34366e-05
101 *264:8 *1719:B1 0
102 *264:26 *410:57 4.62632e-05
103 *265:34 *1640:B1 0.000222885
104 *270:30 *1640:B1 0.000397924
105 *270:30 *1735:B1 0.000872948
106 *306:12 *410:49 0
107 *315:10 *410:57 0.000114045
108 *407:51 *410:49 0.000112298
109 *408:70 *1719:B1 0
110 *408:80 *1719:B1 0
111 *409:32 *410:22 0.000140835
112 *409:160 *410:49 0.000118347
113 *409:160 *410:53 9.17495e-05
114 *409:160 *410:57 4.46186e-06
115 *409:255 *1648:B1 0.000170955
*RES
1 *2030:Q *410:8 14.7464 
2 *410:8 *410:10 4.67857 
3 *410:10 *410:16 9.33929 
4 *410:16 *410:22 16.8571 
5 *410:22 *410:24 2.85714 
6 *410:24 *1719:B1 35.4071 
7 *410:24 *410:39 15.3036 
8 *410:39 *410:43 5.78571 
9 *410:43 *410:49 19.0536 
10 *410:49 *410:53 5.51786 
11 *410:53 *410:57 16.4643 
12 *410:57 *1735:B1 17.6393 
13 *410:57 *1640:B1 24.9786 
14 *410:53 *1632:B1 13.8 
15 *410:49 *410:88 13.25 
16 *410:88 *1648:B1 31.1393 
17 *410:88 *1656:B1 9.3 
18 *410:43 *1743:B1 9.3 
19 *410:39 *1623:A 19.0321 
20 *410:22 *1727:B1 16.6571 
21 *410:16 *1696:A 9.3 
22 *410:10 *1693:A 14.3357 
23 *410:8 *1694:A 20.2464 
*END

*D_NET *411 0.0228372
*CONN
*I *1664:A I *D sky130_fd_sc_hd__xor2_1
*I *1701:A I *D sky130_fd_sc_hd__xor2_1
*I *1702:A I *D sky130_fd_sc_hd__and3_1
*I *1703:A1 I *D sky130_fd_sc_hd__a21oi_1
*I *1850:A I *D sky130_fd_sc_hd__nand4_4
*I *1868:D I *D sky130_fd_sc_hd__nand4b_4
*I *1832:D I *D sky130_fd_sc_hd__nand4b_4
*I *1710:A I *D sky130_fd_sc_hd__nand4_4
*I *1785:A I *D sky130_fd_sc_hd__nand4_4
*I *1776:A_N I *D sky130_fd_sc_hd__and4bb_4
*I *1700:A I *D sky130_fd_sc_hd__nor2_1
*I *1706:A1 I *D sky130_fd_sc_hd__a31o_1
*I *1711:A1 I *D sky130_fd_sc_hd__a41o_1
*I *1767:D I *D sky130_fd_sc_hd__nand4b_4
*I *1885:A_N I *D sky130_fd_sc_hd__and4b_4
*I *1758:A_N I *D sky130_fd_sc_hd__and4b_4
*I *1794:A_N I *D sky130_fd_sc_hd__and4b_4
*I *1813:A_N I *D sky130_fd_sc_hd__and4bb_4
*I *1749:D I *D sky130_fd_sc_hd__nand4b_4
*I *1859:A_N I *D sky130_fd_sc_hd__and4bb_4
*I *1804:A I *D sky130_fd_sc_hd__nand4_4
*I *1823:A_N I *D sky130_fd_sc_hd__and4bb_4
*I *1841:A_N I *D sky130_fd_sc_hd__and4b_4
*I *1994:Q O *D sky130_fd_sc_hd__dfrtp_4
*CAP
1 *1664:A 0.000213754
2 *1701:A 0
3 *1702:A 2.23854e-05
4 *1703:A1 7.51038e-05
5 *1850:A 1.27783e-05
6 *1868:D 0
7 *1832:D 0
8 *1710:A 0.000113777
9 *1785:A 0.000567369
10 *1776:A_N 0
11 *1700:A 0.000125989
12 *1706:A1 0.000357469
13 *1711:A1 0.000146625
14 *1767:D 0
15 *1885:A_N 0
16 *1758:A_N 0
17 *1794:A_N 0.000247122
18 *1813:A_N 0
19 *1749:D 0
20 *1859:A_N 0
21 *1804:A 0.000213968
22 *1823:A_N 0
23 *1841:A_N 0.000536852
24 *1994:Q 0
25 *411:244 0.00010598
26 *411:207 0.000626536
27 *411:203 0.000274131
28 *411:179 0.00081897
29 *411:175 0.000474942
30 *411:164 0.000508364
31 *411:153 0.000511622
32 *411:126 0.000651547
33 *411:111 0.00075543
34 *411:94 0.000488806
35 *411:76 0.000323909
36 *411:74 0.000362283
37 *411:70 0.000368713
38 *411:64 0.000619918
39 *411:53 0.000273627
40 *411:45 0.000188637
41 *411:43 0.000277541
42 *411:33 0.000329147
43 *411:18 0.000789352
44 *411:16 0.000392534
45 *411:14 0.000890301
46 *411:4 0.000860268
47 *1700:A *1997:CLK 0.000125724
48 *1700:A *1997:D 0.000140001
49 *1700:A *1998:RESET_B 0
50 *1700:A *423:33 0.000189441
51 *1703:A1 *1703:A2 6.04561e-05
52 *1703:A1 *412:18 3.69047e-06
53 *1706:A1 *1997:CLK 5.52238e-05
54 *1706:A1 *2001:D 0.00010096
55 *1710:A *1998:RESET_B 0
56 *1710:A *2002:CLK 1.41029e-05
57 *1710:A *2002:D 0.000148196
58 *1710:A *438:185 0
59 *1711:A1 *2000:RESET_B 0
60 *1711:A1 *413:76 0
61 *1711:A1 *438:185 0
62 *1785:A *1776:B_N 1.21258e-05
63 *1785:A *1785:B 0
64 *1785:A *412:121 1.58163e-05
65 *1785:A *447:20 2.74834e-05
66 *1804:A *451:115 6.76178e-05
67 *1841:A_N *1841:B 0.000270394
68 *1850:A *1703:A2 5.71022e-06
69 *411:14 *1994:D 9.90431e-05
70 *411:14 *1994:RESET_B 0
71 *411:14 *432:45 0
72 *411:14 *459:20 0
73 *411:16 *1702:B 3.4879e-05
74 *411:18 *1702:B 5.30637e-06
75 *411:33 *1702:B 0
76 *411:33 *1995:CLK 0
77 *411:43 *1703:A2 2.42662e-05
78 *411:43 *1850:B 0.00010096
79 *411:43 *412:39 9.60875e-05
80 *411:43 *450:61 0.000183726
81 *411:45 *1832:A_N 9.41642e-05
82 *411:45 *412:39 8.36572e-05
83 *411:53 *1859:B_N 5.33005e-05
84 *411:53 *416:180 0.000193833
85 *411:64 *1859:B_N 5.33005e-05
86 *411:64 *450:14 6.42095e-05
87 *411:70 *1885:C 6.25878e-05
88 *411:76 *451:115 7.58571e-05
89 *411:94 *451:115 6.95299e-05
90 *411:111 *416:96 0.000521633
91 *411:111 *451:115 1.00375e-05
92 *411:126 *1758:B 0.0001399
93 *411:126 *1758:C 2.44318e-05
94 *411:126 *416:96 6.50734e-05
95 *411:126 *447:12 1.63458e-05
96 *411:153 *1709:A 8.49861e-06
97 *411:153 *414:8 3.6322e-05
98 *411:153 *414:25 0
99 *411:153 *414:29 0
100 *411:175 *438:185 0
101 *411:179 *1997:D 1.40306e-05
102 *411:179 *1997:RESET_B 5.17792e-05
103 *411:203 *438:185 0
104 *411:207 *2002:D 2.89016e-05
105 *411:207 *447:20 0.000102197
106 *411:244 *1703:A2 3.48705e-05
107 *411:244 *1850:B 1.33343e-05
108 *1701:B *411:14 5.85866e-05
109 *1702:C *411:16 0.000518983
110 *1713:B *1706:A1 0.000188586
111 *1716:A0 *1794:A_N 7.32381e-05
112 *1716:A1 *1794:A_N 0.000197991
113 *1716:A2 *411:111 5.66157e-05
114 *1716:S0 *1794:A_N 0
115 *1730:A1 *1841:A_N 7.3237e-05
116 *1746:S *411:70 0.000271352
117 *1746:S *411:74 0.000157409
118 *1748:A *1711:A1 1.0562e-05
119 *1758:D *411:126 1.00073e-05
120 *1776:D *1785:A 4.43157e-05
121 *1813:D *411:111 0.000255338
122 *1813:D *411:126 5.80706e-06
123 *1850:D *411:43 0.00015134
124 *1885:D *411:70 0.000392026
125 *165:29 *1706:A1 7.37591e-05
126 *165:29 *1711:A1 3.08907e-05
127 *165:29 *411:164 5.06983e-05
128 *165:29 *411:179 2.05646e-05
129 *165:42 *1706:A1 7.31177e-05
130 *225:8 *411:14 0.000217094
131 *225:10 *411:14 1.21289e-05
132 *225:10 *411:16 5.52302e-05
133 *232:10 *1710:A 0
134 *232:10 *1711:A1 0
135 *232:10 *411:153 0
136 *232:10 *411:175 0
137 *232:10 *411:203 0
138 *239:12 *411:53 0.000197262
139 *246:8 *1841:A_N 1.74352e-05
140 *246:10 *411:64 0.000129185
141 *246:10 *411:153 0.00017364
142 *261:14 *411:111 0.000185661
143 *263:6 *411:126 1.92905e-05
144 *263:95 *1794:A_N 2.6726e-05
145 *265:26 *1785:A 5.33005e-05
146 *265:101 *1785:A 0.000140933
147 *267:14 *1794:A_N 8.8487e-05
148 *272:14 *411:33 7.79781e-06
149 *273:8 *1804:A 0.000199698
150 *275:6 *411:43 1.98839e-05
151 *275:6 *411:244 4.72917e-05
152 *275:16 *411:33 0.000151333
153 *275:111 *411:33 1.04232e-05
154 *275:111 *411:43 0.000314139
155 *277:86 *411:43 1.37292e-05
156 *278:12 *411:70 2.28598e-05
157 *278:12 *411:74 0.000137983
158 *295:8 *1794:A_N 5.52302e-05
159 *407:265 *1794:A_N 0
160 *407:265 *1804:A 0
161 *407:265 *411:76 0
162 *407:265 *411:94 0
163 *407:265 *411:111 0
164 *408:90 *411:126 1.70184e-05
165 *409:94 *1841:A_N 0.00014285
166 *409:94 *411:43 0.000196269
167 *409:94 *411:64 0.000243642
168 *409:94 *411:153 0.000101545
*RES
1 *1994:Q *411:4 9.3 
2 *411:4 *411:14 21.3393 
3 *411:14 *411:16 6.28571 
4 *411:16 *411:18 2.17857 
5 *411:18 *1841:A_N 19.2821 
6 *411:18 *411:33 11.6786 
7 *411:33 *411:43 15.9107 
8 *411:43 *411:45 1.76786 
9 *411:45 *411:53 12.0893 
10 *411:53 *1823:A_N 9.3 
11 *411:53 *411:64 9.42857 
12 *411:64 *411:70 10.8036 
13 *411:70 *411:74 7.5 
14 *411:74 *411:76 2.55357 
15 *411:76 *1804:A 18.7821 
16 *411:76 *1859:A_N 13.8 
17 *411:74 *411:94 2.55357 
18 *411:94 *1749:D 13.8 
19 *411:94 *411:111 10.8571 
20 *411:111 *1813:A_N 13.8 
21 *411:111 *411:126 10.1964 
22 *411:126 *1794:A_N 24.425 
23 *411:126 *1758:A_N 9.3 
24 *411:70 *1885:A_N 9.3 
25 *411:64 *411:153 8.875 
26 *411:153 *1767:D 9.3 
27 *411:153 *411:164 9.98214 
28 *411:164 *1711:A1 16.3536 
29 *411:164 *411:175 0.732143 
30 *411:175 *411:179 8.73214 
31 *411:179 *1706:A1 16.8536 
32 *411:179 *1700:A 22.3714 
33 *411:175 *411:203 1.64286 
34 *411:203 *411:207 6.26786 
35 *411:207 *1776:A_N 9.3 
36 *411:207 *1785:A 16.9429 
37 *411:203 *1710:A 16.3536 
38 *411:45 *1832:D 9.3 
39 *411:43 *1868:D 9.3 
40 *411:33 *411:244 0.946429 
41 *411:244 *1850:A 9.72857 
42 *411:244 *1703:A1 11.0857 
43 *411:16 *1702:A 9.72857 
44 *411:14 *1701:A 9.3 
45 *411:4 *1664:A 12.7107 
*END

*D_NET *412 0.0265694
*CONN
*I *1665:A I *D sky130_fd_sc_hd__nor2_1
*I *1666:A I *D sky130_fd_sc_hd__and2_1
*I *1706:A2 I *D sky130_fd_sc_hd__a31o_1
*I *1703:B1 I *D sky130_fd_sc_hd__a21oi_1
*I *1868:A_N I *D sky130_fd_sc_hd__nand4b_4
*I *1711:A2 I *D sky130_fd_sc_hd__a41o_1
*I *1823:B_N I *D sky130_fd_sc_hd__and4bb_4
*I *1850:B I *D sky130_fd_sc_hd__nand4_4
*I *1776:B_N I *D sky130_fd_sc_hd__and4bb_4
*I *1758:B I *D sky130_fd_sc_hd__and4b_4
*I *1813:B_N I *D sky130_fd_sc_hd__and4bb_4
*I *1705:A I *D sky130_fd_sc_hd__xnor2_1
*I *1710:B I *D sky130_fd_sc_hd__nand4_4
*I *1785:B I *D sky130_fd_sc_hd__nand4_4
*I *1794:B I *D sky130_fd_sc_hd__and4b_4
*I *1767:A_N I *D sky130_fd_sc_hd__nand4b_4
*I *1749:A_N I *D sky130_fd_sc_hd__nand4b_4
*I *1885:B I *D sky130_fd_sc_hd__and4b_4
*I *1859:B_N I *D sky130_fd_sc_hd__and4bb_4
*I *1804:B I *D sky130_fd_sc_hd__nand4_4
*I *1841:B I *D sky130_fd_sc_hd__and4b_4
*I *1832:A_N I *D sky130_fd_sc_hd__nand4b_4
*I *1702:B I *D sky130_fd_sc_hd__and3_1
*I *1995:Q O *D sky130_fd_sc_hd__dfrtp_4
*CAP
1 *1665:A 7.86369e-05
2 *1666:A 0
3 *1706:A2 0.000459834
4 *1703:B1 1.62779e-05
5 *1868:A_N 0
6 *1711:A2 0.000453416
7 *1823:B_N 0
8 *1850:B 0.000136834
9 *1776:B_N 3.75798e-05
10 *1758:B 0.000332207
11 *1813:B_N 0
12 *1705:A 0.00016504
13 *1710:B 2.23854e-05
14 *1785:B 1.11927e-05
15 *1794:B 0.000165112
16 *1767:A_N 0.000116553
17 *1749:A_N 1.82337e-05
18 *1885:B 5.12619e-05
19 *1859:B_N 0.00011733
20 *1804:B 0.000265342
21 *1841:B 0.000601032
22 *1832:A_N 0.000378193
23 *1702:B 0.000213302
24 *1995:Q 0
25 *412:271 0.00100499
26 *412:222 0.000611673
27 *412:205 0.000295091
28 *412:182 0.000393683
29 *412:162 0.000504964
30 *412:158 0.000458367
31 *412:125 0.000326809
32 *412:123 7.54706e-05
33 *412:121 0.00022007
34 *412:119 0.000277013
35 *412:106 0.000241833
36 *412:91 0.000215126
37 *412:80 0.000243351
38 *412:54 0.000918368
39 *412:52 0.000119898
40 *412:39 0.000597812
41 *412:37 0.000357442
42 *412:33 0.000181106
43 *412:18 0.000344183
44 *412:14 0.000839567
45 *412:10 0.00129198
46 *412:4 0.00102281
47 *1702:B *1995:CLK 0.000126439
48 *1703:B1 *1703:A2 1.38054e-05
49 *1705:A *1700:B 0.000261001
50 *1705:A *423:29 0.000227532
51 *1706:A2 *1706:A3 0.000197991
52 *1706:A2 *1706:B1 0.000130296
53 *1706:A2 *1995:RESET_B 6.42242e-05
54 *1706:A2 *413:64 0.000187883
55 *1706:A2 *459:20 0
56 *1710:B *1710:C 0
57 *1711:A2 *1711:B1 1.74352e-05
58 *1711:A2 *413:36 0
59 *1711:A2 *413:80 2.65105e-05
60 *1711:A2 *414:25 1.4403e-05
61 *1711:A2 *414:29 0.000100969
62 *1711:A2 *450:226 0
63 *1758:B *1758:C 0.000353079
64 *1767:A_N *1767:B 9.90431e-05
65 *1767:A_N *416:180 4.43256e-05
66 *1767:A_N *450:131 1.08359e-05
67 *1776:B_N *447:20 3.97677e-05
68 *1794:B *1794:C 0.000390994
69 *1794:B *447:20 4.87832e-05
70 *1794:B *450:161 8.36572e-05
71 *1804:B *1804:C 1.04232e-05
72 *1804:B *450:39 2.89114e-05
73 *1804:B *450:50 0.000226078
74 *1832:A_N *1832:B 4.27438e-05
75 *1841:B *416:180 0.00019384
76 *1850:B *1703:A2 5.33334e-05
77 *1850:B *413:23 2.8266e-06
78 *1859:B_N *450:14 0.000309266
79 *412:10 *1995:RESET_B 6.86411e-05
80 *412:10 *459:20 0
81 *412:14 *1995:CLK 1.56e-05
82 *412:14 *1995:RESET_B 0.000179995
83 *412:18 *1995:CLK 1.58163e-05
84 *412:37 *413:23 9.90367e-05
85 *412:54 *416:180 0.000164554
86 *412:80 *416:180 0.000184583
87 *412:91 *416:180 0.000162125
88 *412:106 *416:180 0.000209483
89 *412:119 *416:180 0.00012401
90 *412:121 *447:20 0.000101001
91 *412:123 *447:20 2.44318e-05
92 *412:123 *450:161 5.30637e-06
93 *412:125 *447:20 7.24613e-05
94 *412:125 *450:161 4.36664e-05
95 *412:158 *450:161 0.000101545
96 *412:158 *452:32 0.000223599
97 *412:162 *1700:B 2.89114e-05
98 *412:162 *450:161 0.00022153
99 *412:162 *450:170 7.32272e-05
100 *412:182 *452:32 0.000175526
101 *412:222 *413:23 7.58664e-05
102 *412:222 *413:36 5.01876e-06
103 *412:271 *1921:RESET_B 4.96155e-05
104 *412:271 *1995:RESET_B 7.43578e-06
105 *412:271 *438:41 0.000173083
106 *1665:B *1665:A 4.99544e-05
107 *1665:B *412:271 5.55463e-05
108 *1667:A0 *1665:A 5.52302e-05
109 *1667:A0 *412:271 5.33005e-05
110 *1673:B *412:271 5.41794e-05
111 *1703:A1 *412:18 3.69047e-06
112 *1712:A *1705:A 1.54142e-05
113 *1717:B *412:182 0.000125731
114 *1748:A *1711:A2 1.98839e-05
115 *1758:D *1758:B 4.99616e-05
116 *1776:D *1776:B_N 5.33005e-05
117 *1785:A *1776:B_N 1.21258e-05
118 *1785:A *1785:B 0
119 *1785:A *412:121 1.58163e-05
120 *1786:S *1767:A_N 0.000313003
121 *1794:D *1794:B 0.000262498
122 *1813:D *1758:B 1.98839e-05
123 *1841:A_N *1841:B 0.000270394
124 *1841:D *1841:B 6.57032e-05
125 *1885:D *1885:B 0.00018077
126 *2116:A *1706:A2 0
127 *2116:A *412:10 0
128 *165:21 *1711:A2 8.04781e-05
129 *165:29 *1711:A2 1.62539e-05
130 *209:10 *412:271 0.000117189
131 *228:8 *1702:B 3.90513e-05
132 *228:8 *412:33 6.5185e-05
133 *230:14 *412:119 3.53786e-05
134 *230:25 *412:119 0.000187019
135 *231:12 *1705:A 3.18676e-05
136 *232:10 *1711:A2 0.000114733
137 *239:12 *412:119 0.000360816
138 *246:8 *1841:B 5.33005e-05
139 *246:10 *1841:B 0.000171375
140 *246:10 *412:54 0.000173804
141 *246:10 *412:80 0.000193833
142 *246:10 *412:91 0.000171375
143 *246:10 *412:106 0.000218734
144 *261:8 *1749:A_N 5.33005e-05
145 *261:8 *412:106 9.41642e-05
146 *265:26 *1767:A_N 1.39726e-05
147 *266:19 *1767:A_N 1.02504e-05
148 *268:12 *1885:B 9.3111e-05
149 *268:27 *1832:A_N 9.60939e-05
150 *268:38 *1832:A_N 5.52238e-05
151 *270:16 *1758:B 5.33005e-05
152 *271:17 *1711:A2 0
153 *271:17 *412:222 0
154 *271:19 *412:222 0
155 *272:8 *412:222 5.57914e-05
156 *272:14 *1702:B 0
157 *272:14 *1850:B 7.26841e-05
158 *272:14 *412:222 6.8646e-06
159 *272:64 *1832:A_N 0.000706727
160 *272:64 *412:39 0.000392032
161 *278:94 *1804:B 9.71197e-05
162 *407:248 *412:182 0
163 *408:117 *1767:A_N 0.000196269
164 *408:117 *412:158 4.47843e-05
165 *409:94 *1749:A_N 1.92905e-05
166 *409:94 *1841:B 6.8646e-06
167 *409:94 *412:106 2.60984e-05
168 *411:16 *1702:B 3.4879e-05
169 *411:18 *1702:B 5.30637e-06
170 *411:33 *1702:B 0
171 *411:43 *1850:B 0.00010096
172 *411:43 *412:39 9.60875e-05
173 *411:45 *1832:A_N 9.41642e-05
174 *411:45 *412:39 8.36572e-05
175 *411:53 *1859:B_N 5.33005e-05
176 *411:64 *1859:B_N 5.33005e-05
177 *411:126 *1758:B 0.0001399
178 *411:244 *1850:B 1.33343e-05
*RES
1 *1995:Q *412:4 9.3 
2 *412:4 *412:10 6.48214 
3 *412:10 *412:14 13.25 
4 *412:14 *412:18 5.44643 
5 *412:18 *1702:B 17.3 
6 *412:18 *412:33 6.14286 
7 *412:33 *412:37 2.60714 
8 *412:37 *412:39 5.05357 
9 *412:39 *1832:A_N 18.1929 
10 *412:39 *412:52 4.5 
11 *412:52 *412:54 2.25 
12 *412:54 *1841:B 25.0143 
13 *412:54 *1804:B 18.8714 
14 *412:52 *412:80 2.55357 
15 *412:80 *1859:B_N 16.8 
16 *412:80 *412:91 2.25 
17 *412:91 *1885:B 15.5679 
18 *412:91 *412:106 8.30357 
19 *412:106 *1749:A_N 9.83571 
20 *412:106 *412:119 13.6786 
21 *412:119 *412:121 2.17857 
22 *412:121 *412:123 0.535714 
23 *412:123 *412:125 1.35714 
24 *412:125 *1767:A_N 22.6214 
25 *412:125 *1794:B 14.675 
26 *412:123 *1785:B 9.72857 
27 *412:121 *412:158 7.35714 
28 *412:158 *412:162 10.375 
29 *412:162 *1710:B 9.72857 
30 *412:162 *1705:A 14.3714 
31 *412:158 *412:182 6.75 
32 *412:182 *1813:B_N 9.3 
33 *412:182 *1758:B 15.9071 
34 *412:119 *1776:B_N 10.2464 
35 *412:37 *412:205 4.5 
36 *412:205 *1850:B 17.3 
37 *412:205 *412:222 3.92857 
38 *412:222 *1823:B_N 13.8 
39 *412:222 *1711:A2 21.675 
40 *412:33 *1868:A_N 9.3 
41 *412:14 *1703:B1 9.72857 
42 *412:10 *1706:A2 25.1571 
43 *412:4 *412:271 25.875 
44 *412:271 *1666:A 9.3 
45 *412:271 *1665:A 11.0857 
*END

*D_NET *413 0.0110625
*CONN
*I *1671:A I *D sky130_fd_sc_hd__or2_1
*I *1668:A I *D sky130_fd_sc_hd__nand2_1
*I *1706:B1 I *D sky130_fd_sc_hd__a31o_1
*I *1711:A3 I *D sky130_fd_sc_hd__a41o_1
*I *1748:B I *D sky130_fd_sc_hd__nor2_2
*I *1709:B I *D sky130_fd_sc_hd__and2_2
*I *1822:B I *D sky130_fd_sc_hd__nor2_2
*I *1803:B I *D sky130_fd_sc_hd__and2_2
*I *1708:A I *D sky130_fd_sc_hd__xnor2_1
*I *1707:A I *D sky130_fd_sc_hd__xor2_1
*I *1996:Q O *D sky130_fd_sc_hd__dfrtp_4
*CAP
1 *1671:A 7.24283e-05
2 *1668:A 0
3 *1706:B1 8.61749e-05
4 *1711:A3 0
5 *1748:B 2.22916e-05
6 *1709:B 0.000116406
7 *1822:B 1.20576e-05
8 *1803:B 0.000146264
9 *1708:A 0
10 *1707:A 0
11 *1996:Q 0
12 *413:116 0.00048419
13 *413:80 0.000461962
14 *413:76 0.00116326
15 *413:64 0.00124389
16 *413:58 0.000898562
17 *413:36 0.000442285
18 *413:23 0.000534993
19 *413:10 0.00130223
20 *413:4 0.00122029
21 *1706:B1 *459:20 9.27779e-05
22 *1709:B *1709:A 3.18676e-05
23 *413:10 *1996:D 0.000273269
24 *413:10 *1996:RESET_B 3.44618e-05
25 *413:10 *2000:CLK 3.90148e-05
26 *413:23 *1996:D 0
27 *413:23 *2000:CLK 1.33343e-05
28 *413:36 *1624:A 0.00014183
29 *413:36 *450:226 5.10822e-05
30 *413:58 *1926:D 0
31 *413:58 *459:20 0
32 *413:64 *459:20 0.000127506
33 *413:76 *1706:A3 0.000385485
34 *413:76 *2000:CLK 0
35 *413:76 *2000:D 2.88018e-06
36 *413:76 *2000:RESET_B 0.00014285
37 *413:80 *1706:A3 3.39008e-05
38 *413:80 *1711:B1 0.000268409
39 *413:80 *2000:D 1.24368e-05
40 *1668:B *1671:A 5.71472e-05
41 *1672:B1 *1671:A 0.000188586
42 *1704:B *413:23 0
43 *1704:B *413:36 0
44 *1706:A2 *1706:B1 0.000130296
45 *1706:A2 *413:64 0.000187883
46 *1711:A1 *413:76 0
47 *1711:A2 *413:36 0
48 *1711:A2 *413:80 2.65105e-05
49 *1803:A *1803:B 0.000120526
50 *1803:A *1822:B 1.04232e-05
51 *1803:A *413:36 4.88637e-05
52 *1850:B *413:23 2.8266e-06
53 *1885:D *1803:B 4.27338e-05
54 *199:18 *1671:A 0.00010096
55 *228:8 *413:23 0
56 *261:8 *1709:B 4.88546e-05
57 *261:8 *413:80 5.30637e-06
58 *409:94 *1709:B 5.33005e-05
59 *412:37 *413:23 9.90367e-05
60 *412:222 *413:23 7.58664e-05
61 *412:222 *413:36 5.01876e-06
*RES
1 *1996:Q *413:4 9.3 
2 *413:4 *413:10 13.1964 
3 *413:10 *1707:A 9.3 
4 *413:10 *413:23 9.66071 
5 *413:23 *1708:A 13.8 
6 *413:23 *413:36 9.85714 
7 *413:36 *1803:B 11.9071 
8 *413:36 *1822:B 9.72857 
9 *413:4 *413:58 11.8571 
10 *413:58 *413:64 11.875 
11 *413:64 *413:76 25.25 
12 *413:76 *413:80 5.98214 
13 *413:80 *1709:B 11.8 
14 *413:80 *1748:B 10.0321 
15 *413:76 *1711:A3 9.3 
16 *413:64 *1706:B1 16.9607 
17 *413:58 *413:116 6.83929 
18 *413:116 *1668:A 9.3 
19 *413:116 *1671:A 11.9071 
*END

*D_NET *414 0.00177527
*CONN
*I *1711:B1 I *D sky130_fd_sc_hd__a41o_1
*I *1624:A I *D sky130_fd_sc_hd__inv_2
*I *1822:A I *D sky130_fd_sc_hd__nor2_2
*I *1709:A I *D sky130_fd_sc_hd__and2_2
*I *1997:Q O *D sky130_fd_sc_hd__dfrtp_1
*CAP
1 *1711:B1 5.75848e-05
2 *1624:A 2.67562e-05
3 *1822:A 0
4 *1709:A 1.62256e-05
5 *1997:Q 4.99413e-05
6 *414:29 0.000148966
7 *414:25 0.00026361
8 *414:8 0.000149983
9 *1709:B *1709:A 3.18676e-05
10 *1711:A2 *1711:B1 1.74352e-05
11 *1711:A2 *414:25 1.4403e-05
12 *1711:A2 *414:29 0.000100969
13 *1748:A *1711:B1 0.000139913
14 *1803:A *1624:A 0.000139913
15 *232:10 *1711:B1 4.43256e-05
16 *232:10 *414:8 5.33978e-05
17 *261:8 *1709:A 5.52238e-05
18 *271:17 *414:29 9.69119e-06
19 *409:94 *414:29 0
20 *411:153 *1709:A 8.49861e-06
21 *411:153 *414:8 3.6322e-05
22 *411:153 *414:25 0
23 *411:153 *414:29 0
24 *413:36 *1624:A 0.00014183
25 *413:80 *1711:B1 0.000268409
*RES
1 *1997:Q *414:8 15.2911 
2 *414:8 *1709:A 14.6125 
3 *414:8 *414:25 1.65179 
4 *414:25 *414:29 7.05357 
5 *414:29 *1822:A 9.3 
6 *414:29 *1624:A 10.6571 
7 *414:25 *1711:B1 16.3893 
*END

*D_NET *415 0.0024692
*CONN
*I *2071:A I *D sky130_fd_sc_hd__clkbuf_16
*I *2070:A I *D sky130_fd_sc_hd__clkbuf_16
*I *2068:X O *D sky130_fd_sc_hd__clkbuf_16
*CAP
1 *2071:A 0.000383702
2 *2070:A 0.000306522
3 *2068:X 0
4 *415:4 0.000690224
5 *2071:A *2027:CLK 5.38072e-05
6 *2071:A *2027:D 3.0285e-05
7 *2071:A *2027:RESET_B 0.000490416
8 *2071:A *2033:D 0
9 *1684:B *2071:A 0.000146474
10 *1685:C *2070:A 0.000202828
11 *1685:C *2071:A 3.44781e-05
12 *1687:B *2070:A 5.72433e-05
13 *219:21 *2070:A 4.94455e-05
14 *220:8 *2070:A 2.37761e-05
15 *409:16 *2070:A 0
*RES
1 *2068:X *415:4 9.3 
2 *415:4 *2070:A 24.7286 
3 *415:4 *2071:A 27.6571 
*END

*D_NET *416 0.052644
*CONN
*I *2085:A I *D sky130_fd_sc_hd__clkbuf_8
*I *2084:A I *D sky130_fd_sc_hd__clkbuf_8
*I *2083:A I *D sky130_fd_sc_hd__clkbuf_8
*I *2082:A I *D sky130_fd_sc_hd__clkbuf_8
*I *2078:A I *D sky130_fd_sc_hd__clkbuf_8
*I *2077:A I *D sky130_fd_sc_hd__clkbuf_8
*I *2073:A I *D sky130_fd_sc_hd__clkbuf_8
*I *2074:A I *D sky130_fd_sc_hd__clkbuf_8
*I *2076:A I *D sky130_fd_sc_hd__clkbuf_8
*I *2075:A I *D sky130_fd_sc_hd__clkbuf_8
*I *2087:A I *D sky130_fd_sc_hd__clkbuf_8
*I *2086:A I *D sky130_fd_sc_hd__clkbuf_8
*I *2081:A I *D sky130_fd_sc_hd__clkbuf_8
*I *2079:A I *D sky130_fd_sc_hd__clkbuf_8
*I *2072:A I *D sky130_fd_sc_hd__clkbuf_8
*I *2080:A I *D sky130_fd_sc_hd__clkbuf_8
*I *2069:X O *D sky130_fd_sc_hd__clkbuf_16
*CAP
1 *2085:A 0.000647694
2 *2084:A 0
3 *2083:A 0
4 *2082:A 0.000721176
5 *2078:A 0.000424094
6 *2077:A 0
7 *2073:A 0.00141738
8 *2074:A 0
9 *2076:A 0.000630166
10 *2075:A 0
11 *2087:A 6.00171e-05
12 *2086:A 0.00103314
13 *2081:A 0
14 *2079:A 0.00048944
15 *2072:A 0.000232249
16 *2080:A 0.000791028
17 *2069:X 0
18 *416:184 0.00115992
19 *416:182 0.000459336
20 *416:180 0.0017606
21 *416:138 0.0037532
22 *416:124 0.00260471
23 *416:120 0.00128085
24 *416:105 0.00131802
25 *416:96 0.00063334
26 *416:92 0.00199074
27 *416:66 0.00140078
28 *416:45 0.00174098
29 *416:39 0.00122104
30 *416:22 0.00143888
31 *416:20 0.00261742
32 *416:4 0.00222879
33 *2076:A *422:12 0.000351156
34 *2078:A *425:12 5.64954e-05
35 *2078:A *452:150 0.000123574
36 *2079:A *2007:CLK 7.61932e-05
37 *2079:A *426:6 0.000168057
38 *2079:A *426:28 5.96516e-05
39 *2079:A *426:79 0.000113083
40 *2080:A *2067:CLK 4.38128e-05
41 *2080:A *427:6 5.52302e-05
42 *2082:A *429:10 0.000202891
43 *2082:A *451:86 2.28159e-05
44 *2085:A *431:6 0.000351162
45 *2085:A *431:70 0.00048555
46 *2086:A *453:131 0.000300075
47 *416:20 *436:77 2.56694e-05
48 *416:39 *1876:A0 4.38128e-05
49 *416:39 *436:79 9.60939e-05
50 *416:45 *2007:CLK 6.80593e-05
51 *416:45 *455:73 3.28804e-05
52 *416:66 *1770:A0 0
53 *416:92 *1750:A0 0.000227532
54 *416:92 *451:119 1.02821e-05
55 *416:96 *1795:A1 6.2589e-06
56 *416:96 *447:12 0.000380852
57 *416:96 *451:141 0
58 *416:96 *451:143 0
59 *416:105 *451:143 0
60 *416:105 *451:158 0
61 *416:120 *1759:A1 0
62 *416:120 *452:150 0.000116007
63 *416:138 *1780:A1 2.11372e-05
64 *416:180 *1767:B 0.000180501
65 *416:182 *2020:CLK 2.31791e-05
66 *416:184 *2020:CLK 0.000197991
67 *1645:A1 *416:138 1.02504e-05
68 *1645:A2 *2073:A 1.05729e-05
69 *1645:A3 *2073:A 5.75351e-05
70 *1646:B *2073:A 8.18783e-05
71 *1649:A1 *416:22 0.000116174
72 *1652:B1 *416:138 9.59803e-05
73 *1657:A1 *2080:A 2.79421e-05
74 *1657:A2 *2080:A 9.3111e-05
75 *1657:A2 *416:45 0.000126439
76 *1716:A2 *416:96 5.66157e-05
77 *1721:A0 *2082:A 0.000137354
78 *1721:A2 *2082:A 6.80706e-05
79 *1724:A0 *2078:A 0.000217042
80 *1730:A0 *416:180 0
81 *1730:A0 *416:184 0
82 *1730:A1 *416:180 3.92854e-05
83 *1730:A1 *416:182 2.84398e-05
84 *1730:A1 *416:184 7.83366e-05
85 *1731:B2 *2078:A 0.000477787
86 *1734:A1 *2086:A 4.35306e-05
87 *1734:A1 *416:66 1.78353e-05
88 *1734:A3 *2086:A 9.20581e-06
89 *1734:A3 *416:66 8.2395e-05
90 *1734:S0 *416:22 0.000618832
91 *1734:S0 *416:66 0.000664302
92 *1767:A_N *416:180 4.43256e-05
93 *1767:C *416:180 2.59355e-05
94 *1769:A1 *416:124 8.27532e-05
95 *1770:A1 *416:66 1.69115e-05
96 *1779:A0 *2087:A 0
97 *1779:A0 *416:66 0
98 *1786:A1 *416:92 0.000123475
99 *1786:A1 *416:96 6.59861e-05
100 *1786:S *416:92 3.14078e-05
101 *1786:S *416:180 5.38242e-05
102 *1825:A0 *2085:A 4.72917e-05
103 *1826:S *416:45 0
104 *1830:A0 *416:22 2.06427e-05
105 *1841:B *416:180 0.00019384
106 *1858:S *2080:A 0.000134748
107 *1858:S *416:22 3.95689e-05
108 *1871:S *2080:A 0.000200413
109 *1871:S *416:45 0
110 *1875:A1 *416:22 5.33882e-05
111 *1876:A1 *2080:A 2.95726e-05
112 *1877:A1 *416:120 2.56694e-05
113 *1893:A0 *2080:A 2.59355e-05
114 *1930:D *416:120 0
115 *1940:D *416:66 0.000292693
116 *1946:D *2076:A 0.000269739
117 *1948:D *2087:A 5.01213e-05
118 *1948:D *416:66 5.41054e-05
119 *1952:D *416:138 6.61065e-05
120 *1974:D *416:45 8.16036e-05
121 *2051:D *416:45 0.000150625
122 *2053:D *2078:A 7.18079e-05
123 *2053:D *416:120 0.000177941
124 *2057:D *416:20 1.64343e-05
125 *2058:D *2073:A 0.000318276
126 *2061:D *416:184 0.000101545
127 *2067:D *2080:A 0.000229607
128 *2069:A *416:20 0.00135001
129 *16:31 *416:20 0.000620978
130 *163:22 *416:138 1.3142e-05
131 *164:18 *416:138 0.000158586
132 *230:14 *416:180 7.83587e-05
133 *239:12 *2082:A 8.15939e-05
134 *239:12 *416:180 0.000451567
135 *239:12 *416:182 1.31516e-05
136 *239:12 *416:184 0.000439677
137 *246:10 *416:180 1.81805e-05
138 *253:10 *416:45 0
139 *263:110 *416:138 4.75521e-05
140 *264:16 *2076:A 0.000424937
141 *265:26 *416:180 2.73493e-05
142 *266:65 *2073:A 0.000312262
143 *270:91 *2078:A 0.000169793
144 *270:91 *416:120 0
145 *277:38 *416:39 0.0001399
146 *303:10 *2076:A 3.67142e-05
147 *305:8 *416:66 0
148 *312:6 *416:124 0.000363837
149 *357:10 *416:22 0.000364953
150 *379:10 *416:45 0.00020305
151 *407:61 *2073:A 3.61417e-05
152 *407:265 *416:96 0
153 *407:295 *416:45 0
154 *407:311 *416:45 0
155 *407:373 *2080:A 3.19058e-05
156 *407:373 *416:22 0.000546257
157 *407:373 *416:45 0
158 *407:449 *2082:A 0.000703316
159 *408:80 *416:120 0.000137494
160 *408:90 *416:96 3.54569e-05
161 *408:90 *416:105 5.25998e-05
162 *408:90 *416:120 7.73184e-05
163 *408:142 *2082:A 0.000214342
164 *408:142 *416:184 0.000740712
165 *408:146 *2082:A 5.83304e-05
166 *408:249 *416:45 0.000408144
167 *408:257 *416:45 2.11419e-05
168 *408:431 *2087:A 1.19402e-05
169 *409:94 *416:180 0
170 *409:98 *416:180 0
171 *409:98 *416:184 0
172 *410:39 *2078:A 0.000477787
173 *411:53 *416:180 0.000193833
174 *411:111 *416:96 0.000521633
175 *411:126 *416:96 6.50734e-05
176 *412:54 *416:180 0.000164554
177 *412:80 *416:180 0.000184583
178 *412:91 *416:180 0.000162125
179 *412:106 *416:180 0.000209483
180 *412:119 *416:180 0.00012401
*RES
1 *2069:X *416:4 9.3 
2 *416:4 *416:20 43.6786 
3 *416:20 *416:22 15 
4 *416:22 *2080:A 29.4071 
5 *416:22 *416:39 8.33929 
6 *416:39 *416:45 31.5893 
7 *416:45 *2072:A 12.7107 
8 *416:45 *2079:A 18.05 
9 *416:39 *2081:A 9.3 
10 *416:20 *416:66 9.83929 
11 *416:66 *2086:A 26.2643 
12 *416:66 *2087:A 15.1393 
13 *416:4 *416:92 6.42857 
14 *416:92 *416:96 17.6786 
15 *416:96 *2075:A 13.8 
16 *416:96 *416:105 1.94643 
17 *416:105 *2076:A 26.8 
18 *416:105 *416:120 13.1786 
19 *416:120 *416:124 10.375 
20 *416:124 *416:138 24.7063 
21 *416:138 *2074:A 9.3 
22 *416:138 *2073:A 27.8357 
23 *416:124 *2077:A 9.3 
24 *416:120 *2078:A 26.0143 
25 *416:92 *416:180 27.625 
26 *416:180 *416:182 0.732143 
27 *416:182 *416:184 14.6964 
28 *416:184 *2082:A 29.7464 
29 *416:184 *2083:A 13.8 
30 *416:182 *2084:A 13.8 
31 *416:180 *2085:A 22.9786 
*END

*D_NET *417 0.0190822
*CONN
*I *1913:CLK I *D sky130_fd_sc_hd__dfxtp_1
*I *2029:CLK I *D sky130_fd_sc_hd__dfrtp_4
*I *2034:CLK I *D sky130_fd_sc_hd__dfrtp_1
*I *2033:CLK I *D sky130_fd_sc_hd__dfrtp_1
*I *2028:CLK I *D sky130_fd_sc_hd__dfrtp_4
*I *2095:A I *D sky130_fd_sc_hd__inv_4
*I *1914:CLK I *D sky130_fd_sc_hd__dfxtp_1
*I *1918:CLK I *D sky130_fd_sc_hd__dfxtp_1
*I *1915:CLK I *D sky130_fd_sc_hd__dfxtp_1
*I *1919:CLK I *D sky130_fd_sc_hd__dfxtp_1
*I *1916:CLK I *D sky130_fd_sc_hd__dfxtp_1
*I *1917:CLK I *D sky130_fd_sc_hd__dfxtp_1
*I *2070:X O *D sky130_fd_sc_hd__clkbuf_16
*CAP
1 *1913:CLK 0.00028641
2 *2029:CLK 3.7903e-05
3 *2034:CLK 0
4 *2033:CLK 0.000447308
5 *2028:CLK 0
6 *2095:A 2.23854e-05
7 *1914:CLK 0.000279109
8 *1918:CLK 0.00058391
9 *1915:CLK 3.72884e-05
10 *1919:CLK 2.97081e-05
11 *1916:CLK 8.2423e-05
12 *1917:CLK 0.00105509
13 *2070:X 3.13122e-05
14 *417:108 0.000737146
15 *417:102 0.000582732
16 *417:91 0.000839821
17 *417:87 0.00094521
18 *417:49 0.000621199
19 *417:47 0.000379486
20 *417:36 0.000220591
21 *417:23 0.000368392
22 *417:12 0.00187325
23 *417:8 0.000741629
24 *417:6 0.000201836
25 *1913:CLK *452:14 0
26 *1917:CLK *422:26 5.49781e-05
27 *1917:CLK *424:14 0.000250915
28 *1917:CLK *424:50 0.000169457
29 *1917:CLK *424:65 0.000598861
30 *1918:CLK *1895:CLK 9.90431e-05
31 *1918:CLK *2122:A 0.000231964
32 *2033:CLK *2033:D 0
33 *417:108 *2033:D 9.86436e-06
34 *417:108 *2034:D 0
35 *1689:B *417:91 5.33433e-05
36 *1689:B *417:102 6.62783e-05
37 *1691:B *417:108 0
38 *1726:A1 *1913:CLK 0
39 *1726:S0 *1913:CLK 9.95474e-05
40 *1726:S0 *417:87 1.69021e-05
41 *1727:A1 *417:87 6.74911e-05
42 *1727:A2 *1913:CLK 1.18064e-05
43 *1727:A2 *417:87 1.17968e-05
44 *1727:A2 *417:91 4.58194e-05
45 *1727:B1 *417:87 0.000148196
46 *1747:A2 *417:12 5.33005e-05
47 *1747:B2 *417:12 9.90367e-05
48 *1781:A0 *1917:CLK 7.83659e-05
49 *1915:D *1917:CLK 8.32171e-05
50 *1915:D *1918:CLK 3.6706e-05
51 *1915:D *417:12 1.21258e-05
52 *1915:D *417:23 0.000499769
53 *1915:D *417:36 0.000220448
54 *1915:D *417:47 0.000150625
55 *1916:D *1916:CLK 0.000127067
56 *1950:D *1917:CLK 0.000100831
57 *1979:D *1913:CLK 9.91086e-05
58 *2068:A *2033:CLK 0
59 *29:18 *1914:CLK 7.45269e-05
60 *29:18 *417:47 1.78353e-05
61 *33:16 *417:12 0.00134606
62 *34:14 *1919:CLK 9.60939e-05
63 *34:14 *417:23 0.000250481
64 *34:14 *417:36 0.00011061
65 *34:14 *417:47 1.08359e-05
66 *164:73 *1917:CLK 0
67 *221:8 *417:102 0.000183713
68 *221:12 *2029:CLK 0.000153054
69 *221:12 *417:108 5.41794e-05
70 *222:8 *417:108 0
71 *260:16 *1917:CLK 0.0011129
72 *260:16 *417:12 0.000106943
73 *262:36 *1919:CLK 4.87953e-05
74 *264:68 *1917:CLK 0
75 *265:34 *1917:CLK 0
76 *266:35 *1916:CLK 6.62868e-05
77 *392:10 *417:91 4.43355e-05
78 *408:30 *1913:CLK 0.000360094
79 *408:30 *417:91 0.000151318
80 *408:570 *417:91 0.0001399
81 *409:32 *417:6 9.60939e-05
82 *409:32 *417:8 8.57023e-05
83 *409:38 *417:8 0.000183726
84 *409:38 *417:12 9.41642e-05
85 *410:10 *2029:CLK 0.000143804
86 *410:10 *417:108 5.41794e-05
87 *410:16 *417:108 0.000176234
88 *410:22 *417:6 1.92905e-05
*RES
1 *2070:X *417:6 10.2464 
2 *417:6 *417:8 2.58929 
3 *417:8 *417:12 20.2321 
4 *417:12 *1917:CLK 43.3714 
5 *417:12 *417:23 6.5 
6 *417:23 *1916:CLK 15.9964 
7 *417:23 *417:36 2.85714 
8 *417:36 *1919:CLK 14.7464 
9 *417:36 *417:47 2.55357 
10 *417:47 *417:49 4.5 
11 *417:49 *1915:CLK 9.83571 
12 *417:49 *1918:CLK 20.925 
13 *417:47 *1914:CLK 18.2464 
14 *417:8 *2095:A 9.72857 
15 *417:6 *417:87 6.75 
16 *417:87 *417:91 15.3036 
17 *417:91 *2028:CLK 9.3 
18 *417:91 *417:102 9.16071 
19 *417:102 *417:108 6.25 
20 *417:108 *2033:CLK 21.4786 
21 *417:108 *2034:CLK 13.8 
22 *417:102 *2029:CLK 15.7464 
23 *417:87 *1913:CLK 20.9071 
*END

*D_NET *418 0.0145187
*CONN
*I *1904:CLK I *D sky130_fd_sc_hd__dfrtp_1
*I *1909:CLK I *D sky130_fd_sc_hd__dfrtp_1
*I *1903:CLK I *D sky130_fd_sc_hd__dfrtp_1
*I *1908:CLK I *D sky130_fd_sc_hd__dfrtp_1
*I *1912:CLK I *D sky130_fd_sc_hd__dfxtp_1
*I *1906:CLK I *D sky130_fd_sc_hd__dfrtp_1
*I *2031:CLK I *D sky130_fd_sc_hd__dfrtp_4
*I *2030:CLK I *D sky130_fd_sc_hd__dfrtp_4
*I *2035:CLK I *D sky130_fd_sc_hd__dfrtp_1
*I *1911:CLK I *D sky130_fd_sc_hd__dfrtp_1
*I *1902:CLK I *D sky130_fd_sc_hd__dfrtp_1
*I *1905:CLK I *D sky130_fd_sc_hd__dfrtp_1
*I *2032:CLK I *D sky130_fd_sc_hd__dfrtp_1
*I *2027:CLK I *D sky130_fd_sc_hd__dfrtp_4
*I *1910:CLK I *D sky130_fd_sc_hd__dfrtp_1
*I *1907:CLK I *D sky130_fd_sc_hd__dfrtp_1
*I *2071:X O *D sky130_fd_sc_hd__clkbuf_16
*CAP
1 *1904:CLK 0
2 *1909:CLK 9.43591e-05
3 *1903:CLK 0.000293549
4 *1908:CLK 0.000793252
5 *1912:CLK 0.000234573
6 *1906:CLK 0.000285677
7 *2031:CLK 0
8 *2030:CLK 2.61224e-05
9 *2035:CLK 0.000111598
10 *1911:CLK 0
11 *1902:CLK 2.82024e-05
12 *1905:CLK 0
13 *2032:CLK 0
14 *2027:CLK 0.000294767
15 *1910:CLK 0
16 *1907:CLK 0.000186325
17 *2071:X 0
18 *418:141 0.00113794
19 *418:139 0.000466746
20 *418:137 0.000213658
21 *418:135 0.000750825
22 *418:110 0.000217595
23 *418:97 0.000526491
24 *418:84 0.000338895
25 *418:80 0.000777151
26 *418:65 0.000576424
27 *418:22 0.00033991
28 *418:20 0.00047
29 *418:16 0.00032295
30 *418:12 0.000407812
31 *418:8 0.000329313
32 *418:4 0.000745185
33 *1902:CLK *2033:RESET_B 9.90431e-05
34 *1902:CLK *460:10 3.18676e-05
35 *1903:CLK *1903:D 7.77751e-05
36 *1906:CLK *1906:RESET_B 5.41609e-05
37 *1907:CLK *1910:D 0
38 *1908:CLK *1908:RESET_B 0.000303994
39 *1908:CLK *1923:CLK 9.0145e-05
40 *1912:CLK *1909:D 0.000213277
41 *1912:CLK *1911:D 0.000106084
42 *2030:CLK *2030:RESET_B 2.89016e-05
43 *418:12 *1902:D 0
44 *418:16 *1905:D 7.77751e-05
45 *418:16 *2032:D 7.32955e-05
46 *418:20 *2032:D 9.90431e-05
47 *418:22 *1910:D 0
48 *418:65 *1902:D 0
49 *418:84 *446:121 9.01238e-05
50 *418:84 *446:131 1.31516e-05
51 *418:97 *2035:D 5.29278e-05
52 *418:97 *446:131 0.000204302
53 *418:97 *446:135 1.9868e-05
54 *418:110 *1697:A 0
55 *418:110 *2030:D 0
56 *418:110 *2035:D 0.00014209
57 *418:110 *446:135 0.000114305
58 *418:135 *1674:A_N 7.83587e-05
59 *418:135 *1911:D 0.00026449
60 *418:135 *1927:D 1.58163e-05
61 *418:135 *446:12 8.06331e-05
62 *418:135 *446:49 9.97648e-05
63 *418:135 *446:59 4.73471e-05
64 *418:135 *461:14 2.95726e-05
65 *418:137 *1911:D 9.12446e-05
66 *418:137 *446:12 9.12446e-05
67 *418:137 *446:14 4.46186e-06
68 *418:139 *1909:D 0.000177948
69 *418:139 *1911:D 0.000118095
70 *418:139 *446:14 2.58997e-05
71 *418:141 *1909:D 0.000368104
72 *418:141 *1911:D 0.000197543
73 *1684:B *2027:CLK 2.56694e-05
74 *2068:A *418:12 0
75 *2068:A *418:65 0
76 *2068:A *418:80 0
77 *2071:A *2027:CLK 5.38072e-05
78 *27:14 *1908:CLK 1.58163e-05
79 *27:14 *1912:CLK 0.000356028
80 *216:18 *418:16 0.00048402
81 *216:18 *418:20 3.14193e-05
82 *216:22 *2027:CLK 0
*RES
1 *2071:X *418:4 9.3 
2 *418:4 *418:8 5.03571 
3 *418:8 *418:12 6.14286 
4 *418:12 *418:16 8.76786 
5 *418:16 *418:20 5.44643 
6 *418:20 *418:22 2.55357 
7 *418:22 *1907:CLK 16.9964 
8 *418:22 *1910:CLK 13.8 
9 *418:20 *2027:CLK 18.2464 
10 *418:16 *2032:CLK 9.3 
11 *418:12 *1905:CLK 9.3 
12 *418:8 *418:65 3.16071 
13 *418:65 *1902:CLK 14.7464 
14 *418:65 *418:80 10.875 
15 *418:80 *418:84 7.05357 
16 *418:84 *1911:CLK 13.8 
17 *418:84 *418:97 5.94643 
18 *418:97 *2035:CLK 15.5679 
19 *418:97 *418:110 9.17857 
20 *418:110 *2030:CLK 9.83571 
21 *418:110 *2031:CLK 9.3 
22 *418:80 *1906:CLK 13.9429 
23 *418:4 *418:135 16.875 
24 *418:135 *418:137 2.25 
25 *418:137 *418:139 2.85714 
26 *418:139 *418:141 4.67857 
27 *418:141 *1912:CLK 20.0679 
28 *418:141 *1908:CLK 28.0321 
29 *418:139 *1903:CLK 18.4429 
30 *418:137 *1909:CLK 15.175 
31 *418:135 *1904:CLK 13.8 
*END

*D_NET *419 0.0104856
*CONN
*I *2038:CLK I *D sky130_fd_sc_hd__dfxtp_1
*I *1974:CLK I *D sky130_fd_sc_hd__dfxtp_1
*I *2005:CLK I *D sky130_fd_sc_hd__dfxtp_1
*I *2015:CLK I *D sky130_fd_sc_hd__dfxtp_1
*I *2088:A I *D sky130_fd_sc_hd__clkbuf_8
*I *2021:CLK I *D sky130_fd_sc_hd__dfxtp_1
*I *2064:CLK I *D sky130_fd_sc_hd__dfxtp_1
*I *1988:CLK I *D sky130_fd_sc_hd__dfxtp_1
*I *2046:CLK I *D sky130_fd_sc_hd__dfxtp_1
*I *2062:CLK I *D sky130_fd_sc_hd__dfxtp_1
*I *2013:CLK I *D sky130_fd_sc_hd__dfxtp_1
*I *1972:CLK I *D sky130_fd_sc_hd__dfxtp_1
*I *2072:X O *D sky130_fd_sc_hd__clkbuf_8
*CAP
1 *2038:CLK 0
2 *1974:CLK 0.000148623
3 *2005:CLK 0.000146183
4 *2015:CLK 0.000167766
5 *2088:A 0
6 *2021:CLK 0
7 *2064:CLK 0.000121923
8 *1988:CLK 0.000135006
9 *2046:CLK 0
10 *2062:CLK 0.000360044
11 *2013:CLK 0
12 *1972:CLK 0.000347153
13 *2072:X 7.00058e-05
14 *419:113 0.000355273
15 *419:100 0.000274699
16 *419:70 0.000419333
17 *419:63 0.000508275
18 *419:59 0.000429117
19 *419:44 0.000908385
20 *419:18 0.000622882
21 *419:14 0.00132003
22 *419:12 0.000621284
23 *419:8 8.85418e-05
24 *419:6 7.00058e-05
25 *419:14 *453:57 0.000311121
26 *1738:A0 *1974:CLK 0.000230482
27 *1738:A0 *419:12 0.00015134
28 *1738:A0 *419:100 0.000201127
29 *1738:A0 *419:113 0.000175519
30 *1738:A1 *1974:CLK 1.38323e-05
31 *1738:A1 *2005:CLK 4.58194e-05
32 *1738:S *1974:CLK 0.000317082
33 *1835:A1 *419:14 4.40685e-05
34 *1853:S *2064:CLK 0.000122159
35 *1888:S *419:12 0.000153054
36 *1888:S *419:100 0.000194299
37 *1888:S *419:113 0.000190155
38 *1988:D *1988:CLK 0
39 *2005:D *419:14 0.000228335
40 *2013:D *1972:CLK 0
41 *2013:D *419:18 0.000147136
42 *2015:D *419:113 0
43 *2021:D *419:63 0.000361143
44 *2046:D *1988:CLK 9.69119e-06
45 *2046:D *2064:CLK 0.000128496
46 *2046:D *419:70 0.000229607
47 *253:8 *1974:CLK 3.18676e-05
48 *337:10 *2064:CLK 2.27416e-05
49 *345:8 *1988:CLK 0
50 *353:12 *419:63 2.27416e-05
51 *353:12 *419:70 5.30637e-06
52 *377:10 *419:14 3.38968e-05
*RES
1 *2072:X *419:6 10.2464 
2 *419:6 *419:8 4.5 
3 *419:8 *419:12 6.44643 
4 *419:12 *419:14 10.3929 
5 *419:14 *419:18 4.66071 
6 *419:18 *1972:CLK 24.3357 
7 *419:18 *2013:CLK 9.3 
8 *419:14 *419:44 12.875 
9 *419:44 *2062:CLK 19.3536 
10 *419:44 *419:59 5.85714 
11 *419:59 *419:63 7.125 
12 *419:63 *2046:CLK 9.3 
13 *419:63 *419:70 3.41071 
14 *419:70 *1988:CLK 20.55 
15 *419:70 *2064:CLK 12.7107 
16 *419:59 *2021:CLK 9.3 
17 *419:12 *2088:A 9.3 
18 *419:8 *419:100 2.55357 
19 *419:100 *2015:CLK 16.3893 
20 *419:100 *419:113 7.05357 
21 *419:113 *2005:CLK 11.4786 
22 *419:113 *1974:CLK 13.9429 
23 *419:6 *2038:CLK 9.3 
*END

*D_NET *420 0.00983308
*CONN
*I *2058:CLK I *D sky130_fd_sc_hd__dfxtp_1
*I *1985:CLK I *D sky130_fd_sc_hd__dfxtp_1
*I *1968:CLK I *D sky130_fd_sc_hd__dfxtp_1
*I *1936:CLK I *D sky130_fd_sc_hd__dfxtp_1
*I *1982:CLK I *D sky130_fd_sc_hd__dfxtp_1
*I *2103:A I *D sky130_fd_sc_hd__clkbuf_8
*I *1958:CLK I *D sky130_fd_sc_hd__dfxtp_1
*I *1898:CLK I *D sky130_fd_sc_hd__dfxtp_1
*I *1966:CLK I *D sky130_fd_sc_hd__dfxtp_1
*I *1901:CLK I *D sky130_fd_sc_hd__dfxtp_1
*I *1969:CLK I *D sky130_fd_sc_hd__dfxtp_1
*I *1961:CLK I *D sky130_fd_sc_hd__dfxtp_1
*I *2073:X O *D sky130_fd_sc_hd__clkbuf_8
*CAP
1 *2058:CLK 0
2 *1985:CLK 0
3 *1968:CLK 0.000545575
4 *1936:CLK 0
5 *1982:CLK 0.000421611
6 *2103:A 0
7 *1958:CLK 0.000166088
8 *1898:CLK 0
9 *1966:CLK 0.00022665
10 *1901:CLK 0
11 *1969:CLK 0.000139368
12 *1961:CLK 0
13 *2073:X 0.000185989
14 *420:121 0.000798775
15 *420:97 0.000572485
16 *420:59 0.000347978
17 *420:57 0.000395489
18 *420:35 0.000323525
19 *420:22 0.000524083
20 *420:16 0.000964653
21 *420:14 0.000689008
22 *420:12 0.0004219
23 *420:8 0.000351875
24 *420:6 0.000185989
25 *1968:CLK *436:36 4.16114e-05
26 *1968:CLK *436:48 3.19202e-05
27 *1968:CLK *457:8 8.64416e-05
28 *1968:CLK *457:10 0
29 *1968:CLK *457:12 0
30 *1968:CLK *457:172 0
31 *420:16 *436:10 8.90314e-05
32 *420:22 *436:10 5.06983e-05
33 *420:22 *436:21 0
34 *420:35 *436:21 0
35 *1631:S1 *1982:CLK 0.000197045
36 *1653:S0 *1982:CLK 0
37 *1653:S0 *420:12 0.000201127
38 *1653:S0 *420:121 0.000188734
39 *1757:S *1968:CLK 0
40 *1799:A0 *1966:CLK 0.000227532
41 *1799:S *1966:CLK 0
42 *1799:S *1969:CLK 0.000179656
43 *1799:S *420:22 0
44 *1799:S *420:35 0
45 *1799:S *420:57 0
46 *1799:S *420:59 0
47 *1821:A0 *1968:CLK 7.83366e-05
48 *1821:A0 *420:121 0.000107644
49 *1821:S *1968:CLK 1.76135e-05
50 *1958:D *1958:CLK 0.000147136
51 *1958:D *1966:CLK 5.9483e-05
52 *1958:D *420:59 7.58571e-05
53 *1961:D *420:22 0
54 *1966:D *1966:CLK 4.67193e-05
55 *1968:D *1968:CLK 0.000115543
56 *1969:D *1969:CLK 0
57 *1985:D *1968:CLK 0.000148903
58 *1985:D *420:121 8.37183e-05
59 *262:115 *1982:CLK 0
60 *266:65 *420:6 0.000397291
61 *266:71 *420:57 0
*RES
1 *2073:X *420:6 13.1214 
2 *420:6 *420:8 4.5 
3 *420:8 *420:12 7.05357 
4 *420:12 *420:14 2.58929 
5 *420:14 *420:16 9.16071 
6 *420:16 *420:22 10.8393 
7 *420:22 *1961:CLK 13.8 
8 *420:22 *420:35 7.89286 
9 *420:35 *1969:CLK 21.4964 
10 *420:35 *1901:CLK 9.3 
11 *420:16 *420:57 6.44643 
12 *420:57 *420:59 2.85714 
13 *420:59 *1966:CLK 19.0679 
14 *420:59 *1898:CLK 13.8 
15 *420:57 *1958:CLK 16.8179 
16 *420:14 *2103:A 9.3 
17 *420:12 *420:97 2.17857 
18 *420:97 *1982:CLK 25.9429 
19 *420:97 *1936:CLK 9.3 
20 *420:8 *420:121 10.0536 
21 *420:121 *1968:CLK 30.0321 
22 *420:121 *1985:CLK 9.3 
23 *420:6 *2058:CLK 9.3 
*END

*D_NET *421 0.0111562
*CONN
*I *1933:CLK I *D sky130_fd_sc_hd__dfxtp_1
*I *2055:CLK I *D sky130_fd_sc_hd__dfxtp_1
*I *1952:CLK I *D sky130_fd_sc_hd__dfxtp_1
*I *1945:CLK I *D sky130_fd_sc_hd__dfxtp_1
*I *2090:A I *D sky130_fd_sc_hd__clkinv_2
*I *1957:CLK I *D sky130_fd_sc_hd__dfxtp_1
*I *1965:CLK I *D sky130_fd_sc_hd__dfxtp_1
*I *1984:CLK I *D sky130_fd_sc_hd__dfxtp_1
*I *1960:CLK I *D sky130_fd_sc_hd__dfxtp_1
*I *1900:CLK I *D sky130_fd_sc_hd__dfxtp_1
*I *1944:CLK I *D sky130_fd_sc_hd__dfxtp_1
*I *2074:X O *D sky130_fd_sc_hd__clkbuf_8
*CAP
1 *1933:CLK 7.34904e-05
2 *2055:CLK 7.58313e-05
3 *1952:CLK 0
4 *1945:CLK 0.00038411
5 *2090:A 0.000226221
6 *1957:CLK 0.000248678
7 *1965:CLK 2.23854e-05
8 *1984:CLK 0
9 *1960:CLK 0.00036548
10 *1900:CLK 0
11 *1944:CLK 0.000303077
12 *2074:X 0
13 *421:82 0.000793477
14 *421:78 0.000323041
15 *421:33 0.000584354
16 *421:22 0.000605557
17 *421:18 0.000451616
18 *421:14 0.00051503
19 *421:10 0.000885762
20 *421:4 0.000650002
21 *1944:CLK *457:12 0
22 *1944:CLK *457:18 0
23 *1945:CLK *1784:A1 0.000140933
24 *1645:A1 *421:10 0
25 *1645:A2 *2090:A 3.30237e-05
26 *1648:B1 *421:10 8.33559e-05
27 *1648:B1 *421:78 0.00017096
28 *1652:A2 *421:10 0
29 *1652:B1 *1945:CLK 0.000202016
30 *1652:B1 *421:10 0
31 *1656:A1 *421:82 4.56945e-05
32 *1656:A2 *1945:CLK 0
33 *1660:A2 *421:78 0.000125724
34 *1660:B1 *421:10 0.000407474
35 *1660:B2 *421:10 7.83659e-05
36 *1783:S *421:78 2.12687e-05
37 *1784:A0 *1945:CLK 4.46186e-06
38 *1789:A1 *1957:CLK 0
39 *1792:A1 *1944:CLK 0.000100735
40 *1792:A1 *421:33 0.000134758
41 *1798:A0 *1957:CLK 0
42 *1798:A0 *421:10 0
43 *1801:A0 *421:33 7.83659e-05
44 *1820:A0 *1957:CLK 0
45 *1883:S *1944:CLK 9.25014e-06
46 *1952:D *1945:CLK 1.52978e-05
47 *1952:D *2090:A 0.000127163
48 *1952:D *421:10 8.15843e-05
49 *1952:D *421:82 4.43256e-05
50 *1957:D *1957:CLK 4.79842e-05
51 *1960:D *1944:CLK 0
52 *1960:D *1960:CLK 0.000190948
53 *1960:D *421:33 0
54 *1965:D *421:10 5.26091e-05
55 *1965:D *421:14 0.000147136
56 *1984:D *421:18 0.000404121
57 *164:34 *421:10 9.91086e-05
58 *266:53 *421:10 0
59 *266:65 *1944:CLK 0.000391583
60 *267:87 *421:14 3.44348e-05
61 *267:87 *421:18 9.5725e-05
62 *267:87 *421:22 9.41706e-05
63 *301:10 *1960:CLK 6.97972e-05
64 *301:10 *421:33 7.4826e-05
65 *309:14 *2090:A 0.000225952
66 *397:10 *1957:CLK 0
67 *397:10 *421:18 5.52302e-05
68 *407:61 *1933:CLK 6.26276e-05
69 *407:61 *421:10 6.86693e-05
70 *408:484 *2090:A 0.000400867
71 *410:88 *2055:CLK 0.000172309
72 *410:88 *421:82 5.52302e-05
*RES
1 *2074:X *421:4 9.3 
2 *421:4 *421:10 16.3036 
3 *421:10 *421:14 7.08929 
4 *421:14 *421:18 7.53571 
5 *421:18 *421:22 6.26786 
6 *421:22 *1944:CLK 21.2107 
7 *421:22 *421:33 4.98214 
8 *421:33 *1900:CLK 13.8 
9 *421:33 *1960:CLK 21.1036 
10 *421:18 *1984:CLK 9.3 
11 *421:14 *1965:CLK 9.72857 
12 *421:10 *1957:CLK 18.175 
13 *421:4 *421:78 11.25 
14 *421:78 *421:82 3.42857 
15 *421:82 *2090:A 16.4071 
16 *421:82 *1945:CLK 26.7643 
17 *421:82 *1952:CLK 9.3 
18 *421:78 *2055:CLK 11.0679 
19 *421:4 *1933:CLK 10.6571 
*END

*D_NET *422 0.00882269
*CONN
*I *1938:CLK I *D sky130_fd_sc_hd__dfxtp_1
*I *1946:CLK I *D sky130_fd_sc_hd__dfxtp_1
*I *1930:CLK I *D sky130_fd_sc_hd__dfxtp_1
*I *1978:CLK I *D sky130_fd_sc_hd__dfxtp_1
*I *2091:A I *D sky130_fd_sc_hd__clkinv_4
*I *1954:CLK I *D sky130_fd_sc_hd__dfxtp_1
*I *1951:CLK I *D sky130_fd_sc_hd__dfxtp_1
*I *1962:CLK I *D sky130_fd_sc_hd__dfxtp_1
*I *2075:X O *D sky130_fd_sc_hd__clkbuf_8
*CAP
1 *1938:CLK 0.000257792
2 *1946:CLK 0
3 *1930:CLK 0
4 *1978:CLK 0
5 *2091:A 0.000320384
6 *1954:CLK 4.92413e-05
7 *1951:CLK 0.000238058
8 *1962:CLK 0.000115492
9 *2075:X 5.2195e-05
10 *422:43 0.000388828
11 *422:26 0.00076787
12 *422:20 0.000893619
13 *422:18 0.000200567
14 *422:12 0.000503968
15 *422:10 0.000325786
16 *422:8 0.000309987
17 *1938:CLK *451:177 0.000118639
18 *1951:CLK *1782:A1 5.33005e-05
19 *2091:A *1795:A1 0.000111448
20 *422:18 *451:143 0
21 *422:18 *451:158 0
22 *422:26 *1795:A1 0.000186498
23 *1782:A0 *1951:CLK 8.03068e-05
24 *1782:A0 *1954:CLK 0
25 *1814:A0 *422:18 0
26 *1917:CLK *422:26 5.49781e-05
27 *1930:D *422:12 0.000144186
28 *1938:D *1938:CLK 0.000126144
29 *1951:D *1951:CLK 0.000111383
30 *1962:D *1962:CLK 5.52302e-05
31 *1962:D *422:26 0.0002452
32 *1978:D *2091:A 1.64343e-05
33 *1978:D *422:18 4.25622e-05
34 *2076:A *422:12 0.000351156
35 *163:36 *422:26 0.000312222
36 *231:24 *1938:CLK 9.41642e-05
37 *260:16 *422:26 0
38 *260:16 *422:43 0
39 *262:28 *1938:CLK 0.000101444
40 *263:32 *1962:CLK 1.81774e-05
41 *263:32 *422:26 7.83659e-05
42 *263:95 *422:18 0.000366675
43 *264:16 *422:12 0.000155087
44 *265:26 *1951:CLK 7.77751e-05
45 *265:26 *1954:CLK 1.88435e-05
46 *265:34 *1962:CLK 2.04825e-05
47 *265:34 *422:26 5.15901e-05
48 *265:34 *422:43 4.09375e-05
49 *266:19 *1938:CLK 0.000380604
50 *266:19 *422:8 0.000148182
51 *311:12 *1938:CLK 6.48579e-05
52 *391:10 *2091:A 0.00023814
53 *409:52 *1938:CLK 0.00038571
54 *409:52 *422:8 0.000148182
*RES
1 *2075:X *422:8 15.7464 
2 *422:8 *422:10 4.5 
3 *422:10 *422:12 7.51786 
4 *422:12 *422:18 13.6786 
5 *422:18 *422:20 0.428571 
6 *422:20 *422:26 17.5625 
7 *422:26 *1962:CLK 15.5589 
8 *422:26 *422:43 6.29464 
9 *422:43 *1951:CLK 14.3714 
10 *422:43 *1954:CLK 10.2643 
11 *422:20 *2091:A 16.4071 
12 *422:18 *1978:CLK 9.3 
13 *422:12 *1930:CLK 9.3 
14 *422:10 *1946:CLK 9.3 
15 *422:8 *1938:CLK 22.1929 
*END

*D_NET *423 0.0104041
*CONN
*I *1928:CLK I *D sky130_fd_sc_hd__dfrtp_1
*I *1923:CLK I *D sky130_fd_sc_hd__dfrtp_1
*I *1924:CLK I *D sky130_fd_sc_hd__dfrtp_1
*I *1999:CLK I *D sky130_fd_sc_hd__dfrtp_1
*I *2092:A I *D sky130_fd_sc_hd__bufinv_16
*I *1998:CLK I *D sky130_fd_sc_hd__dfrtp_2
*I *1929:CLK I *D sky130_fd_sc_hd__dfrtp_1
*I *2001:CLK I *D sky130_fd_sc_hd__dfrtp_1
*I *1997:CLK I *D sky130_fd_sc_hd__dfrtp_1
*I *2002:CLK I *D sky130_fd_sc_hd__dfrtp_1
*I *2076:X O *D sky130_fd_sc_hd__clkbuf_8
*CAP
1 *1928:CLK 0
2 *1923:CLK 5.76476e-05
3 *1924:CLK 0.000261251
4 *1999:CLK 0
5 *2092:A 0
6 *1998:CLK 0
7 *1929:CLK 0.000314912
8 *2001:CLK 9.28461e-05
9 *1997:CLK 0.000123041
10 *2002:CLK 0.000182016
11 *2076:X 0
12 *423:95 0.000444496
13 *423:93 0.00040234
14 *423:78 0.000944562
15 *423:33 0.000329263
16 *423:29 0.000594561
17 *423:14 0.000449646
18 *423:12 0.000238896
19 *423:10 0.000399252
20 *423:4 0.000929531
21 *1923:CLK *1908:RESET_B 0.000178847
22 *1924:CLK *1924:D 1.58163e-05
23 *1924:CLK *1926:D 0
24 *1924:CLK *1927:D 0.000355366
25 *1924:CLK *458:42 4.58194e-05
26 *1929:CLK *1999:D 0.00022459
27 *1929:CLK *1999:RESET_B 1.92905e-05
28 *1997:CLK *1908:D 0
29 *1997:CLK *1997:D 1.91418e-05
30 *2001:CLK *2002:RESET_B 0.000145771
31 *2001:CLK *447:20 0.000195396
32 *2002:CLK *2002:D 0.000195547
33 *423:10 *1998:D 7.58571e-05
34 *423:12 *1998:D 0.00013885
35 *423:12 *1998:RESET_B 0
36 *423:14 *1998:RESET_B 0
37 *423:14 *2002:D 9.91086e-05
38 *423:29 *1700:B 1.21289e-05
39 *423:29 *1999:D 0.000228558
40 *423:33 *1908:D 0
41 *423:33 *1910:D 4.75428e-05
42 *423:78 *1676:A 7.43578e-06
43 *423:78 *1907:D 0.000105163
44 *423:78 *1999:D 0.000317231
45 *423:93 *1676:A 2.89016e-05
46 *423:93 *1926:D 0
47 *423:93 *1927:D 0.0002253
48 *423:95 *1926:D 0
49 *423:95 *1927:D 0.000222878
50 *1700:A *1997:CLK 0.000125724
51 *1700:A *423:33 0.000189441
52 *1705:A *423:29 0.000227532
53 *1705:B *423:29 0.000229456
54 *1706:A1 *1997:CLK 5.52238e-05
55 *1710:A *2002:CLK 1.41029e-05
56 *1712:A *1929:CLK 0.000183726
57 *1712:A *423:29 0.000139907
58 *1712:A *423:33 3.34295e-05
59 *1712:B *1929:CLK 1.02936e-05
60 *1712:B *423:29 2.60984e-05
61 *1715:B *2002:CLK 0
62 *1715:B *423:14 0
63 *1908:CLK *1923:CLK 9.0145e-05
64 *165:29 *1997:CLK 2.27416e-05
65 *231:12 *423:10 0.000103041
66 *231:12 *423:12 0.000208379
67 *231:12 *423:14 7.6021e-05
68 *232:10 *2002:CLK 0
*RES
1 *2076:X *423:4 9.3 
2 *423:4 *423:10 10.0536 
3 *423:10 *423:12 4.98214 
4 *423:12 *423:14 2.25 
5 *423:14 *2002:CLK 17.1929 
6 *423:14 *423:29 9.96429 
7 *423:29 *423:33 7.66071 
8 *423:33 *1997:CLK 16.5857 
9 *423:33 *2001:CLK 17.2107 
10 *423:29 *1929:CLK 15.6036 
11 *423:12 *1998:CLK 13.8 
12 *423:10 *2092:A 13.8 
13 *423:4 *423:78 13.6786 
14 *423:78 *1999:CLK 9.3 
15 *423:78 *423:93 10.0893 
16 *423:93 *423:95 2.85714 
17 *423:95 *1924:CLK 19.425 
18 *423:95 *1923:CLK 15.5679 
19 *423:93 *1928:CLK 13.8 
*END

*D_NET *424 0.00901342
*CONN
*I *1941:CLK I *D sky130_fd_sc_hd__dfxtp_1
*I *1897:CLK I *D sky130_fd_sc_hd__dfxtp_1
*I *1963:CLK I *D sky130_fd_sc_hd__dfxtp_1
*I *1981:CLK I *D sky130_fd_sc_hd__dfxtp_1
*I *1931:CLK I *D sky130_fd_sc_hd__dfxtp_1
*I *1942:CLK I *D sky130_fd_sc_hd__dfxtp_1
*I *2052:CLK I *D sky130_fd_sc_hd__dfxtp_1
*I *1950:CLK I *D sky130_fd_sc_hd__dfxtp_1
*I *2093:A I *D sky130_fd_sc_hd__clkinvlp_4
*I *2077:X O *D sky130_fd_sc_hd__clkbuf_8
*CAP
1 *1941:CLK 0
2 *1897:CLK 0.000548735
3 *1963:CLK 0.000355902
4 *1981:CLK 0
5 *1931:CLK 0
6 *1942:CLK 0
7 *2052:CLK 6.96484e-05
8 *1950:CLK 0
9 *2093:A 0
10 *2077:X 8.0812e-05
11 *424:73 0.000355902
12 *424:71 0.000915434
13 *424:65 0.0007336
14 *424:50 0.000437569
15 *424:29 0.00018672
16 *424:25 0.000193282
17 *424:14 0.000211914
18 *424:8 0.000287183
19 *1897:CLK *454:10 0
20 *1897:CLK *454:12 0
21 *1897:CLK *454:14 0
22 *1963:CLK *1817:A1 0.000147928
23 *424:71 *454:16 0
24 *1636:A1 *424:14 0.000139907
25 *1636:A1 *424:25 4.08637e-05
26 *1740:A2 *1897:CLK 0
27 *1740:A3 *1897:CLK 0
28 *1740:S1 *1897:CLK 0.000197977
29 *1740:S1 *1963:CLK 9.22103e-06
30 *1740:S1 *424:71 7.83659e-05
31 *1741:B *424:71 0
32 *1742:A3 *424:65 5.9565e-05
33 *1771:A1 *424:50 7.71617e-05
34 *1771:A1 *424:65 0.000115693
35 *1774:S *424:65 4.52937e-05
36 *1817:A0 *1963:CLK 9.60939e-05
37 *1820:S *1897:CLK 0
38 *1916:D *424:65 0
39 *1916:D *424:71 0
40 *1917:CLK *424:14 0.000250915
41 *1917:CLK *424:50 0.000169457
42 *1917:CLK *424:65 0.000598861
43 *1941:D *424:65 1.64343e-05
44 *1981:D *1963:CLK 0.000106517
45 *29:18 *424:25 0.000175512
46 *29:18 *424:29 0.000384995
47 *33:16 *424:65 0.000507589
48 *33:16 *424:71 7.22263e-05
49 *34:14 *424:65 0.000222404
50 *34:14 *424:71 4.01768e-05
51 *164:18 *424:8 0.000180777
52 *260:16 *424:25 0.000165262
53 *260:16 *424:29 0.000386703
54 *264:68 *424:14 9.59321e-05
55 *264:68 *424:50 2.7814e-05
56 *270:105 *1963:CLK 0.000174755
57 *408:384 *2052:CLK 5.23142e-05
58 *409:160 *424:71 0
59 *409:255 *424:71 0
*RES
1 *2077:X *424:8 15.5679 
2 *424:8 *424:14 9.01786 
3 *424:14 *2093:A 9.3 
4 *424:14 *424:25 7.28571 
5 *424:25 *424:29 9.48214 
6 *424:29 *1950:CLK 9.3 
7 *424:29 *2052:CLK 10.6571 
8 *424:25 *1942:CLK 13.8 
9 *424:8 *424:50 2.25 
10 *424:50 *1931:CLK 13.8 
11 *424:50 *424:65 17.2857 
12 *424:65 *424:71 10.4286 
13 *424:71 *424:73 4.5 
14 *424:73 *1981:CLK 9.3 
15 *424:73 *1963:CLK 16.4429 
16 *424:71 *1897:CLK 23.0857 
17 *424:65 *1941:CLK 9.3 
*END

*D_NET *425 0.00993509
*CONN
*I *1895:CLK I *D sky130_fd_sc_hd__dfxtp_1
*I *1955:CLK I *D sky130_fd_sc_hd__dfxtp_1
*I *1979:CLK I *D sky130_fd_sc_hd__dfxtp_1
*I *2094:A I *D sky130_fd_sc_hd__clkinv_4
*I *1947:CLK I *D sky130_fd_sc_hd__dfxtp_1
*I *1939:CLK I *D sky130_fd_sc_hd__dfxtp_1
*I *2053:CLK I *D sky130_fd_sc_hd__dfxtp_1
*I *1949:CLK I *D sky130_fd_sc_hd__dfxtp_1
*I *2078:X O *D sky130_fd_sc_hd__clkbuf_8
*CAP
1 *1895:CLK 0.000871976
2 *1955:CLK 8.62072e-05
3 *1979:CLK 0
4 *2094:A 5.26274e-05
5 *1947:CLK 0.00055597
6 *1939:CLK 7.28606e-05
7 *2053:CLK 0
8 *1949:CLK 0.000301168
9 *2078:X 3.80647e-05
10 *425:84 0.00112617
11 *425:75 0.000466077
12 *425:44 0.000685646
13 *425:40 0.000192788
14 *425:16 0.000393009
15 *425:12 0.000303539
16 *425:8 0.000464511
17 *1949:CLK *1796:A1 0
18 *425:75 *1796:A1 0
19 *1622:A *1949:CLK 6.8646e-06
20 *1724:A0 *2094:A 0.000223891
21 *1724:A0 *425:12 9.25014e-06
22 *1724:A0 *425:40 0.000178847
23 *1724:A2 *1947:CLK 1.83267e-05
24 *1724:S1 *1947:CLK 5.03772e-05
25 *1725:B *1947:CLK 2.59355e-05
26 *1726:A2 *1895:CLK 0
27 *1726:S0 *1939:CLK 4.56437e-05
28 *1726:S0 *2094:A 0.000180072
29 *1726:S0 *425:44 0.000122935
30 *1731:B2 *425:8 0.000184745
31 *1740:S1 *1955:CLK 4.465e-05
32 *1742:S1 *1949:CLK 0.000112648
33 *1742:S1 *2094:A 1.38323e-05
34 *1742:S1 *425:16 3.56826e-05
35 *1742:S1 *425:40 9.04838e-05
36 *1743:A2 *1949:CLK 5.52302e-05
37 *1747:B2 *1949:CLK 2.85279e-05
38 *1762:S *1949:CLK 0.000397924
39 *1762:S *425:12 0
40 *1762:S *425:75 0
41 *1780:A0 *1949:CLK 6.05161e-06
42 *1796:A0 *425:84 0
43 *1918:CLK *1895:CLK 9.90431e-05
44 *1918:D *1895:CLK 1.64343e-05
45 *1955:D *1955:CLK 0.000278574
46 *2053:D *425:16 0.00014493
47 *2078:A *425:12 5.64954e-05
48 *163:16 *1949:CLK 0.000164117
49 *163:108 *1949:CLK 4.88637e-05
50 *163:108 *425:16 0.000312209
51 *163:108 *425:40 1.54142e-05
52 *164:18 *1949:CLK 7.50505e-05
53 *266:19 *425:44 1.0945e-05
54 *270:91 *1939:CLK 0.000245349
55 *270:91 *425:12 0
56 *270:91 *425:44 0.000137082
57 *270:91 *425:75 0
58 *270:91 *425:84 0
59 *270:105 *1955:CLK 0.00037616
60 *407:18 *1939:CLK 0.000199698
61 *407:51 *1947:CLK 5.33005e-05
62 *409:133 *425:8 9.92409e-05
63 *409:148 *425:75 0
64 *410:43 *1949:CLK 1.87175e-05
65 *410:49 *1949:CLK 0.000140933
*RES
1 *2078:X *425:8 15.5679 
2 *425:8 *425:12 6.75 
3 *425:12 *425:16 3.42857 
4 *425:16 *1949:CLK 27.2643 
5 *425:16 *2053:CLK 9.3 
6 *425:12 *425:40 2.60714 
7 *425:40 *425:44 6.44643 
8 *425:44 *1939:CLK 16.9607 
9 *425:44 *1947:CLK 20.9429 
10 *425:40 *2094:A 11.4786 
11 *425:8 *425:75 4.98214 
12 *425:75 *1979:CLK 13.8 
13 *425:75 *425:84 2.85714 
14 *425:84 *1955:CLK 18.175 
15 *425:84 *1895:CLK 28.3714 
*END

*D_NET *426 0.0119619
*CONN
*I *1975:CLK I *D sky130_fd_sc_hd__dfxtp_1
*I *2008:CLK I *D sky130_fd_sc_hd__dfxtp_1
*I *2040:CLK I *D sky130_fd_sc_hd__dfxtp_1
*I *2016:CLK I *D sky130_fd_sc_hd__dfxtp_1
*I *1990:CLK I *D sky130_fd_sc_hd__dfxtp_1
*I *2024:CLK I *D sky130_fd_sc_hd__dfxtp_1
*I *2065:CLK I *D sky130_fd_sc_hd__dfxtp_1
*I *2023:CLK I *D sky130_fd_sc_hd__dfxtp_1
*I *2048:CLK I *D sky130_fd_sc_hd__dfxtp_1
*I *2089:A I *D sky130_fd_sc_hd__clkinv_2
*I *2007:CLK I *D sky130_fd_sc_hd__dfxtp_1
*I *2079:X O *D sky130_fd_sc_hd__clkbuf_8
*CAP
1 *1975:CLK 0
2 *2008:CLK 0.000302247
3 *2040:CLK 0.00067921
4 *2016:CLK 0.000259265
5 *1990:CLK 0
6 *2024:CLK 0.000220369
7 *2065:CLK 0.000571729
8 *2023:CLK 0.000472386
9 *2048:CLK 0
10 *2089:A 2.23854e-05
11 *2007:CLK 0.000126999
12 *2079:X 0
13 *426:98 0.00110844
14 *426:83 0.000533185
15 *426:79 0.000495166
16 *426:63 0.000220369
17 *426:43 0.0010665
18 *426:36 0.000169512
19 *426:32 0.000575746
20 *426:28 0.000859943
21 *426:6 0.000274464
22 *426:4 0.000208174
23 *426:32 *455:31 0.000151333
24 *426:32 *455:42 0.000226021
25 *426:32 *455:55 0.000173812
26 *426:98 *456:41 0
27 *426:98 *456:52 0
28 *1633:A2 *2024:CLK 0.000123902
29 *1633:S0 *426:83 4.35048e-05
30 *1634:S1 *426:83 0
31 *1635:A1 *426:98 0.00010326
32 *1736:S0 *426:32 1.40849e-05
33 *1809:S *2008:CLK 5.91336e-05
34 *1809:S *2040:CLK 0.000270207
35 *1826:S *2007:CLK 9.57064e-05
36 *1847:A0 *2008:CLK 9.46929e-05
37 *1864:A0 *426:32 7.83366e-05
38 *1890:A0 *426:36 1.69115e-05
39 *1975:D *426:83 8.04913e-05
40 *1975:D *426:98 3.57163e-05
41 *1990:D *2024:CLK 0.000410013
42 *2016:D *2016:CLK 0.000190948
43 *2016:D *426:83 9.69119e-06
44 *2016:D *426:98 7.8011e-05
45 *2023:D *2023:CLK 0.000144186
46 *2040:D *2040:CLK 5.5855e-05
47 *2048:D *2065:CLK 0.000147136
48 *2048:D *426:36 0
49 *2079:A *2007:CLK 7.61932e-05
50 *2079:A *426:6 0.000168057
51 *2079:A *426:28 5.96516e-05
52 *2079:A *426:79 0.000113083
53 *174:14 *426:32 0
54 *274:53 *426:98 0.000126446
55 *275:57 *2024:CLK 0.000161139
56 *283:10 *2024:CLK 1.92905e-05
57 *355:10 *426:32 0.000185297
58 *355:10 *426:36 0.000152333
59 *407:463 *2016:CLK 3.47797e-05
60 *407:467 *2016:CLK 2.84862e-05
61 *416:45 *2007:CLK 6.80593e-05
*RES
1 *2079:X *426:4 9.3 
2 *426:4 *426:6 3 
3 *426:6 *2007:CLK 21.9071 
4 *426:6 *2089:A 9.72857 
5 *426:4 *426:28 1.35714 
6 *426:28 *426:32 14.3393 
7 *426:32 *426:36 7.05357 
8 *426:36 *2048:CLK 9.3 
9 *426:36 *426:43 0.428571 
10 *426:43 *2023:CLK 16.425 
11 *426:43 *2065:CLK 18.4786 
12 *426:32 *426:63 4.5 
13 *426:63 *2024:CLK 16.425 
14 *426:63 *1990:CLK 9.3 
15 *426:28 *426:79 5.875 
16 *426:79 *426:83 7.35714 
17 *426:83 *2016:CLK 18.4607 
18 *426:83 *426:98 8.57143 
19 *426:98 *2040:CLK 19.7464 
20 *426:98 *2008:CLK 14.3714 
21 *426:79 *1975:CLK 9.3 
*END

*D_NET *427 0.0105383
*CONN
*I *2067:CLK I *D sky130_fd_sc_hd__dfxtp_1
*I *2042:CLK I *D sky130_fd_sc_hd__dfxtp_1
*I *1976:CLK I *D sky130_fd_sc_hd__dfxtp_1
*I *1977:CLK I *D sky130_fd_sc_hd__dfxtp_1
*I *2026:CLK I *D sky130_fd_sc_hd__dfxtp_1
*I *2043:CLK I *D sky130_fd_sc_hd__dfxtp_1
*I *2010:CLK I *D sky130_fd_sc_hd__dfxtp_1
*I *2018:CLK I *D sky130_fd_sc_hd__dfxtp_1
*I *2017:CLK I *D sky130_fd_sc_hd__dfxtp_1
*I *2025:CLK I *D sky130_fd_sc_hd__dfxtp_1
*I *2009:CLK I *D sky130_fd_sc_hd__dfxtp_1
*I *2096:A I *D sky130_fd_sc_hd__clkbuf_8
*I *2080:X O *D sky130_fd_sc_hd__clkbuf_8
*CAP
1 *2067:CLK 2.18155e-05
2 *2042:CLK 2.22847e-05
3 *1976:CLK 0
4 *1977:CLK 9.15606e-05
5 *2026:CLK 5.16538e-05
6 *2043:CLK 0
7 *2010:CLK 2.22847e-05
8 *2018:CLK 0
9 *2017:CLK 6.08044e-05
10 *2025:CLK 7.27507e-05
11 *2009:CLK 0.000102007
12 *2096:A 4.76033e-05
13 *2080:X 2.774e-05
14 *427:94 0.000269104
15 *427:79 0.000961933
16 *427:70 0.000846656
17 *427:66 0.00072621
18 *427:53 0.000757794
19 *427:47 0.00082424
20 *427:43 0.00119798
21 *427:23 0.000174758
22 *427:21 0.000630253
23 *427:10 0.00026073
24 *427:6 0.000170685
25 *2096:A *1866:A1 0.000137983
26 *427:10 *453:90 0
27 *427:21 *453:90 0
28 *427:43 *453:90 0
29 *427:94 *436:100 1.33343e-05
30 *427:94 *436:104 0.000114665
31 *1658:A2 *427:79 0.000662105
32 *1839:S *427:10 2.16719e-05
33 *1839:S *427:21 6.37408e-06
34 *1839:S *427:94 0.000148911
35 *1840:A1 *427:79 1.5709e-05
36 *1848:S *427:66 0
37 *1866:A0 *2096:A 9.60939e-05
38 *1866:A0 *427:21 0.000151333
39 *1866:A0 *427:43 0.000214342
40 *1866:S *427:10 0.000176234
41 *1866:S *427:94 3.67548e-05
42 *1867:A0 *427:94 7.83587e-05
43 *1976:D *427:47 0.000188006
44 *2010:D *427:79 1.64343e-05
45 *2017:D *427:53 0.000202835
46 *2017:D *427:66 1.02504e-05
47 *2018:D *427:66 5.57914e-05
48 *2018:D *427:70 6.26559e-05
49 *2018:D *427:79 1.64343e-05
50 *2042:D *427:43 1.64343e-05
51 *2080:A *2067:CLK 4.38128e-05
52 *2080:A *427:6 5.52302e-05
53 *269:103 *2009:CLK 8.80543e-05
54 *269:103 *2025:CLK 9.92409e-05
55 *269:141 *427:79 0.000228558
56 *274:61 *427:66 0
57 *365:8 *427:43 5.33005e-05
58 *374:10 *427:79 9.24114e-05
59 *407:311 *2026:CLK 9.41642e-05
*RES
1 *2080:X *427:6 9.83571 
2 *427:6 *427:10 7.35714 
3 *427:10 *2096:A 15.1571 
4 *427:10 *427:21 2.25 
5 *427:21 *427:23 4.5 
6 *427:23 *2009:CLK 11.0679 
7 *427:23 *2025:CLK 11.0679 
8 *427:21 *427:43 13.2321 
9 *427:43 *427:47 9.89286 
10 *427:47 *427:53 8.41071 
11 *427:53 *2017:CLK 14.8714 
12 *427:53 *427:66 9.83929 
13 *427:66 *427:70 6.75 
14 *427:70 *2018:CLK 9.3 
15 *427:70 *427:79 14.9286 
16 *427:79 *2010:CLK 9.72857 
17 *427:79 *427:94 13.5357 
18 *427:94 *2043:CLK 9.3 
19 *427:94 *2026:CLK 10.2464 
20 *427:66 *1977:CLK 15.1571 
21 *427:47 *1976:CLK 9.3 
22 *427:43 *2042:CLK 9.72857 
23 *427:6 *2067:CLK 9.83571 
*END

*D_NET *428 0.00567612
*CONN
*I *2050:CLK I *D sky130_fd_sc_hd__dfxtp_1
*I *2022:CLK I *D sky130_fd_sc_hd__dfxtp_1
*I *2063:CLK I *D sky130_fd_sc_hd__dfxtp_1
*I *1992:CLK I *D sky130_fd_sc_hd__dfxtp_1
*I *2097:A I *D sky130_fd_sc_hd__bufinv_16
*I *2051:CLK I *D sky130_fd_sc_hd__dfxtp_1
*I *2006:CLK I *D sky130_fd_sc_hd__dfxtp_1
*I *1973:CLK I *D sky130_fd_sc_hd__dfxtp_1
*I *1993:CLK I *D sky130_fd_sc_hd__dfxtp_1
*I *2014:CLK I *D sky130_fd_sc_hd__dfxtp_1
*I *2081:X O *D sky130_fd_sc_hd__clkbuf_8
*CAP
1 *2050:CLK 0.00016144
2 *2022:CLK 0.000150639
3 *2063:CLK 8.9865e-05
4 *1992:CLK 0
5 *2097:A 2.4041e-05
6 *2051:CLK 7.0288e-05
7 *2006:CLK 0.000319148
8 *1973:CLK 9.23196e-05
9 *1993:CLK 2.49249e-05
10 *2014:CLK 0.000214574
11 *2081:X 0
12 *428:82 0.000423478
13 *428:68 8.9865e-05
14 *428:66 0.000278882
15 *428:50 9.4329e-05
16 *428:23 0.000251976
17 *428:19 0.000518596
18 *428:17 0.0001805
19 *428:15 0.000283267
20 *428:4 0.000214574
21 *1651:A0 *2022:CLK 3.67257e-05
22 *1651:A0 *2050:CLK 6.5185e-05
23 *1651:A1 *2050:CLK 5.06983e-05
24 *1659:A0 *2006:CLK 0.000227539
25 *1659:A1 *2006:CLK 1.32552e-05
26 *1992:D *428:66 0.000148903
27 *190:12 *2050:CLK 4.86495e-05
28 *197:12 *2050:CLK 2.6949e-05
29 *197:12 *428:17 8.96049e-05
30 *197:12 *428:19 5.35516e-05
31 *197:12 *428:23 2.8833e-05
32 *197:12 *428:66 0.000124849
33 *197:12 *428:82 5.72433e-05
34 *253:10 *2050:CLK 0
35 *253:10 *428:66 0
36 *253:10 *428:82 0
37 *272:99 *428:17 8.99419e-05
38 *272:99 *428:19 5.16489e-05
39 *272:99 *428:23 8.49614e-05
40 *272:99 *428:66 5.16489e-05
41 *275:121 *2063:CLK 0.000399848
42 *276:61 *1973:CLK 8.71761e-05
43 *276:61 *1993:CLK 2.27416e-05
44 *277:30 *2063:CLK 0.000148177
45 *407:293 *2051:CLK 5.06983e-05
46 *407:293 *2097:A 1.92905e-05
47 *408:247 *2022:CLK 0.00021529
48 *409:180 *428:23 0
*RES
1 *2081:X *428:4 9.3 
2 *428:4 *2014:CLK 12.7286 
3 *428:4 *428:15 4.5 
4 *428:15 *428:17 3.16071 
5 *428:17 *428:19 1.94643 
6 *428:19 *428:23 7.35714 
7 *428:23 *1993:CLK 9.83571 
8 *428:23 *1973:CLK 11.4786 
9 *428:19 *2006:CLK 19.2821 
10 *428:17 *428:50 4.5 
11 *428:50 *2051:CLK 10.6571 
12 *428:50 *2097:A 9.83571 
13 *428:15 *428:66 4.67857 
14 *428:66 *428:68 4.5 
15 *428:68 *1992:CLK 9.3 
16 *428:68 *2063:CLK 13.1214 
17 *428:66 *428:82 2.25 
18 *428:82 *2022:CLK 17.6214 
19 *428:82 *2050:CLK 17.7107 
*END

*D_NET *429 0.0108702
*CONN
*I *2004:CLK I *D sky130_fd_sc_hd__dfxtp_1
*I *2012:CLK I *D sky130_fd_sc_hd__dfxtp_1
*I *2039:CLK I *D sky130_fd_sc_hd__dfxtp_1
*I *2003:CLK I *D sky130_fd_sc_hd__dfxtp_1
*I *2098:A I *D sky130_fd_sc_hd__bufinv_16
*I *2011:CLK I *D sky130_fd_sc_hd__dfxtp_1
*I *1991:CLK I *D sky130_fd_sc_hd__dfxtp_1
*I *2049:CLK I *D sky130_fd_sc_hd__dfxtp_1
*I *2041:CLK I *D sky130_fd_sc_hd__dfxtp_1
*I *1970:CLK I *D sky130_fd_sc_hd__dfxtp_1
*I *2082:X O *D sky130_fd_sc_hd__clkbuf_8
*CAP
1 *2004:CLK 0.000203432
2 *2012:CLK 0
3 *2039:CLK 4.88726e-05
4 *2003:CLK 0.000212571
5 *2098:A 9.44279e-05
6 *2011:CLK 0.00016263
7 *1991:CLK 0.000226989
8 *2049:CLK 0
9 *2041:CLK 0.000144904
10 *1970:CLK 0.000215
11 *2082:X 0.000384996
12 *429:101 0.000114976
13 *429:99 0.000584654
14 *429:84 0.00060144
15 *429:73 0.000264239
16 *429:46 0.000705465
17 *429:31 0.0011231
18 *429:25 0.000662347
19 *429:12 0.000262772
20 *429:10 0.000528828
21 *429:46 *456:22 7.79781e-06
22 *429:46 *456:35 0.00019197
23 *1641:A3 *1991:CLK 7.1271e-05
24 *1641:S1 *429:46 0
25 *1642:A0 *1970:CLK 5.83233e-05
26 *1642:A0 *429:12 0.000143804
27 *1642:A0 *429:73 4.80729e-05
28 *1642:A1 *429:10 3.69047e-06
29 *1642:A2 *2041:CLK 7.77376e-06
30 *1643:A1 *2003:CLK 0.000405733
31 *1643:A1 *429:73 0.000112916
32 *1643:A1 *429:84 7.57869e-05
33 *1643:S *2003:CLK 0.000188586
34 *1856:A1 *429:46 2.97756e-05
35 *1856:S *1991:CLK 6.42242e-05
36 *1865:A0 *1970:CLK 0.000127439
37 *1891:S *429:46 8.89385e-05
38 *2012:D *2004:CLK 2.08464e-05
39 *2012:D *429:99 0.000375967
40 *2012:D *429:101 4.20522e-05
41 *2024:D *429:46 9.25014e-06
42 *2041:D *2041:CLK 4.87669e-06
43 *2041:D *429:31 4.53889e-05
44 *2049:D *1991:CLK 0.000226664
45 *2082:A *429:10 0.000202891
46 *181:14 *1970:CLK 9.01334e-05
47 *181:14 *429:12 7.92879e-05
48 *181:14 *429:73 0.000143288
49 *181:14 *429:84 6.75007e-05
50 *183:8 *2003:CLK 7.15962e-05
51 *269:26 *1970:CLK 0.000219828
52 *269:26 *429:46 0
53 *275:44 *1991:CLK 2.61337e-05
54 *275:57 *1991:CLK 6.97685e-05
55 *276:35 *429:99 4.70078e-05
56 *276:39 *2039:CLK 1.58163e-05
57 *276:39 *429:99 0.000103004
58 *276:39 *429:101 6.81335e-05
59 *276:61 *2039:CLK 4.55333e-05
60 *276:117 *2004:CLK 0
61 *276:117 *429:84 1.00375e-05
62 *276:117 *429:99 0.000136178
63 *348:10 *429:46 0
64 *356:6 *1991:CLK 5.06983e-05
65 *388:12 *429:46 0
66 *407:449 *429:10 4.9888e-05
67 *407:463 *2041:CLK 2.27416e-05
68 *408:207 *429:46 0.000457969
69 *408:216 *2004:CLK 0
*RES
1 *2082:X *429:10 19.2821 
2 *429:10 *429:12 1.94643 
3 *429:12 *1970:CLK 19.8714 
4 *429:12 *429:25 4.5 
5 *429:25 *429:31 6.32143 
6 *429:31 *2041:CLK 11.3893 
7 *429:31 *429:46 20.6607 
8 *429:46 *2049:CLK 9.3 
9 *429:46 *1991:CLK 23.9607 
10 *429:25 *2011:CLK 11.8893 
11 *429:10 *429:73 3.46429 
12 *429:73 *2098:A 15.1571 
13 *429:73 *429:84 2.25 
14 *429:84 *2003:CLK 20.0857 
15 *429:84 *429:99 13.3036 
16 *429:99 *429:101 1.76786 
17 *429:101 *2039:CLK 10.2464 
18 *429:101 *2012:CLK 9.3 
19 *429:99 *2004:CLK 21.5857 
*END

*D_NET *430 0.0089067
*CONN
*I *2099:A I *D sky130_fd_sc_hd__clkinv_4
*I *2061:CLK I *D sky130_fd_sc_hd__dfxtp_1
*I *2037:CLK I *D sky130_fd_sc_hd__dfxtp_1
*I *2036:CLK I *D sky130_fd_sc_hd__dfxtp_1
*I *2044:CLK I *D sky130_fd_sc_hd__dfxtp_1
*I *1986:CLK I *D sky130_fd_sc_hd__dfxtp_1
*I *2019:CLK I *D sky130_fd_sc_hd__dfxtp_1
*I *2060:CLK I *D sky130_fd_sc_hd__dfxtp_1
*I *2083:X O *D sky130_fd_sc_hd__clkbuf_8
*CAP
1 *2099:A 0.000150409
2 *2061:CLK 0
3 *2037:CLK 0.000116328
4 *2036:CLK 0.000199335
5 *2044:CLK 0
6 *1986:CLK 9.87939e-05
7 *2019:CLK 0
8 *2060:CLK 0.000383114
9 *2083:X 0
10 *430:67 0.000689272
11 *430:32 0.000153348
12 *430:16 0.000406317
13 *430:14 0.000696054
14 *430:8 0.000980669
15 *430:6 0.000735981
16 *430:4 0.000150409
17 *2060:CLK *1824:A1 4.58194e-05
18 *430:14 *1824:A1 0.000284208
19 *430:16 *1824:A1 1.98839e-05
20 *1720:A2 *2060:CLK 1.58163e-05
21 *1720:A2 *430:14 0.00025007
22 *1720:A2 *430:16 1.58163e-05
23 *1720:S1 *430:14 0.000245342
24 *1722:A0 *430:14 0
25 *1722:S *430:8 0.000225307
26 *1722:S *430:67 0.000117903
27 *1842:S *430:67 6.44515e-05
28 *1851:A1 *430:14 2.58997e-05
29 *1860:S *2037:CLK 2.59355e-05
30 *2019:D *430:14 1.64343e-05
31 *2020:D *430:67 0.000218019
32 *2036:D *2036:CLK 0.0001858
33 *2036:D *430:8 0
34 *2036:D *430:14 0
35 *2037:D *2037:CLK 3.48139e-05
36 *2044:D *430:14 0
37 *2044:D *430:32 0.000150618
38 *2060:D *2060:CLK 0.000103323
39 *2061:D *430:67 0.000223708
40 *274:10 *2037:CLK 7.80714e-06
41 *274:20 *2037:CLK 1.19309e-05
42 *275:34 *430:14 0
43 *276:16 *2037:CLK 5.66157e-05
44 *276:22 *2037:CLK 6.05161e-06
45 *277:92 *430:8 0.00020402
46 *277:92 *430:14 0.000330937
47 *277:92 *430:67 0.000167992
48 *277:102 *1986:CLK 0.000200413
49 *277:102 *430:32 0.000165262
50 *278:94 *2037:CLK 0.000173083
51 *336:10 *430:67 2.59355e-05
52 *344:8 *430:67 2.79421e-05
53 *351:10 *430:14 1.32511e-05
54 *359:10 *430:8 0
55 *407:427 *2037:CLK 1.58163e-05
56 *407:439 *430:67 6.22643e-05
57 *409:98 *430:67 0.000408182
*RES
1 *2083:X *430:4 9.3 
2 *430:4 *430:6 4.5 
3 *430:6 *430:8 4.98214 
4 *430:8 *430:14 20.7857 
5 *430:14 *430:16 0.535714 
6 *430:16 *2060:CLK 15.9964 
7 *430:16 *2019:CLK 9.3 
8 *430:14 *430:32 6.75 
9 *430:32 *1986:CLK 16.3536 
10 *430:32 *2044:CLK 13.8 
11 *430:8 *2036:CLK 17.2286 
12 *430:6 *430:67 18.8393 
13 *430:67 *2037:CLK 21.0857 
14 *430:67 *2061:CLK 9.3 
15 *430:4 *2099:A 11.4964 
*END

*D_NET *431 0.00958632
*CONN
*I *1995:CLK I *D sky130_fd_sc_hd__dfrtp_4
*I *2045:CLK I *D sky130_fd_sc_hd__dfxtp_1
*I *2020:CLK I *D sky130_fd_sc_hd__dfxtp_1
*I *2100:A I *D sky130_fd_sc_hd__clkinv_4
*I *1894:CLK I *D sky130_fd_sc_hd__dfxtp_1
*I *2047:CLK I *D sky130_fd_sc_hd__dfxtp_1
*I *1989:CLK I *D sky130_fd_sc_hd__dfxtp_1
*I *1971:CLK I *D sky130_fd_sc_hd__dfxtp_1
*I *2084:X O *D sky130_fd_sc_hd__clkbuf_8
*CAP
1 *1995:CLK 0.000285456
2 *2045:CLK 0.000437972
3 *2020:CLK 8.303e-05
4 *2100:A 2.23854e-05
5 *1894:CLK 0
6 *2047:CLK 3.74879e-05
7 *1989:CLK 0
8 *1971:CLK 2.22573e-05
9 *2084:X 0
10 *431:70 0.000808324
11 *431:34 0.000254043
12 *431:23 0.000476155
13 *431:12 0.000744406
14 *431:8 0.000626223
15 *431:6 0.000327121
16 *431:4 0.000187698
17 *1995:CLK *432:98 0
18 *2045:CLK *1870:A0 0
19 *431:6 *452:46 0.000344574
20 *431:8 *452:46 0.000107943
21 *431:12 *1834:A0 0.00026839
22 *431:12 *452:68 0.000257619
23 *431:23 *1827:A1 0
24 *431:34 *1827:A1 0
25 *431:70 *452:46 0.000254049
26 *1702:B *1995:CLK 0.000126439
27 *1730:A1 *2020:CLK 2.59355e-05
28 *1746:A1 *431:23 0
29 *1825:A0 *2045:CLK 6.8646e-06
30 *1825:A0 *431:70 0.000186662
31 *1833:S *431:8 2.14658e-05
32 *1833:S *431:12 2.28598e-05
33 *1834:A1 *431:12 0.000163529
34 *1872:A1 *431:23 0.000198698
35 *1872:A1 *431:34 0.000161411
36 *1971:D *431:12 1.64343e-05
37 *1971:D *431:23 4.46186e-06
38 *2045:D *2045:CLK 0.000105712
39 *2047:D *431:34 0
40 *2085:A *431:6 0.000351162
41 *2085:A *431:70 0.00048555
42 *227:8 *1995:CLK 3.15739e-05
43 *228:8 *1995:CLK 3.34295e-05
44 *239:12 *2020:CLK 0.000222878
45 *269:77 *1971:CLK 6.05161e-06
46 *272:25 *2045:CLK 0.000268001
47 *272:25 *431:70 1.5424e-05
48 *273:40 *1971:CLK 2.28499e-05
49 *273:40 *431:12 0.00101425
50 *275:16 *1995:CLK 0
51 *275:16 *2045:CLK 0
52 *336:10 *2045:CLK 1.29617e-05
53 *338:10 *2047:CLK 6.05161e-06
54 *338:10 *431:34 0.000148182
55 *384:12 *431:12 7.45454e-05
56 *408:134 *2020:CLK 5.52238e-05
57 *411:33 *1995:CLK 0
58 *412:14 *1995:CLK 1.56e-05
59 *412:18 *1995:CLK 1.58163e-05
60 *416:182 *2020:CLK 2.31791e-05
61 *416:184 *2020:CLK 0.000197991
*RES
1 *2084:X *431:4 9.3 
2 *431:4 *431:6 3.82143 
3 *431:6 *431:8 2.58929 
4 *431:8 *431:12 13.6964 
5 *431:12 *1971:CLK 9.83571 
6 *431:12 *431:23 9.48214 
7 *431:23 *1989:CLK 13.8 
8 *431:23 *431:34 9.17857 
9 *431:34 *2047:CLK 9.83571 
10 *431:34 *1894:CLK 9.3 
11 *431:8 *2100:A 9.72857 
12 *431:6 *2020:CLK 21.6929 
13 *431:4 *431:70 9.14286 
14 *431:70 *2045:CLK 22.9964 
15 *431:70 *1995:CLK 19.1214 
*END

*D_NET *432 0.00888861
*CONN
*I *1994:CLK I *D sky130_fd_sc_hd__dfrtp_4
*I *2000:CLK I *D sky130_fd_sc_hd__dfrtp_1
*I *1996:CLK I *D sky130_fd_sc_hd__dfrtp_4
*I *1920:CLK I *D sky130_fd_sc_hd__dfrtp_1
*I *1927:CLK I *D sky130_fd_sc_hd__dfrtp_1
*I *1922:CLK I *D sky130_fd_sc_hd__dfrtp_1
*I *1926:CLK I *D sky130_fd_sc_hd__dfrtp_1
*I *1921:CLK I *D sky130_fd_sc_hd__dfrtp_1
*I *1925:CLK I *D sky130_fd_sc_hd__dfrtp_1
*I *2101:A I *D sky130_fd_sc_hd__clkinv_2
*I *1987:CLK I *D sky130_fd_sc_hd__dfxtp_1
*I *2085:X O *D sky130_fd_sc_hd__clkbuf_8
*CAP
1 *1994:CLK 7.59237e-05
2 *2000:CLK 0.000413748
3 *1996:CLK 0
4 *1920:CLK 0
5 *1927:CLK 0.000256089
6 *1922:CLK 0
7 *1926:CLK 0.000129809
8 *1921:CLK 2.8727e-05
9 *1925:CLK 0
10 *2101:A 0
11 *1987:CLK 0.000472784
12 *2085:X 0
13 *432:98 0.000832896
14 *432:67 0.000544541
15 *432:56 0.000542801
16 *432:45 0.00060215
17 *432:41 0.000843151
18 *432:32 0.000681453
19 *432:25 0.000287185
20 *432:10 0.000676457
21 *432:8 0.000654876
22 *432:4 0.000107978
23 *1926:CLK *1926:D 2.89016e-05
24 *1926:CLK *1996:RESET_B 0.000195386
25 *1927:CLK *1922:D 2.63433e-05
26 *1927:CLK *1926:D 0
27 *1927:CLK *1927:D 2.89016e-05
28 *1927:CLK *438:117 5.23057e-05
29 *2000:CLK *1996:D 5.81455e-05
30 *2000:CLK *2000:D 7.57773e-05
31 *2000:CLK *450:226 1.69115e-05
32 *432:41 *1920:D 5.52238e-05
33 *432:41 *1925:RESET_B 0.000237752
34 *432:41 *459:20 7.77652e-05
35 *432:45 *1664:B 0
36 *432:56 *1921:D 5.56943e-05
37 *432:56 *1926:D 0
38 *432:67 *1926:D 0
39 *432:98 *1994:D 0
40 *432:98 *1995:D 0
41 *1704:A *2000:CLK 0.000343217
42 *1704:B *2000:CLK 0.000196269
43 *1825:A0 *1987:CLK 0
44 *1825:A0 *432:10 0
45 *1870:A1 *1987:CLK 0
46 *1987:D *1987:CLK 1.64343e-05
47 *1987:D *1994:CLK 5.76121e-05
48 *1987:D *432:8 1.00073e-05
49 *1987:D *432:10 0
50 *1995:CLK *432:98 0
51 *2116:A *432:98 0
52 *201:20 *432:45 0
53 *227:8 *432:98 0
54 *228:8 *2000:CLK 0.000153047
55 *411:14 *432:45 0
56 *413:10 *2000:CLK 3.90148e-05
57 *413:23 *2000:CLK 1.33343e-05
58 *413:76 *2000:CLK 0
*RES
1 *2085:X *432:4 9.3 
2 *432:4 *432:8 5.03571 
3 *432:8 *432:10 3.16071 
4 *432:10 *1987:CLK 21.2286 
5 *432:10 *432:25 4.5 
6 *432:25 *2101:A 9.3 
7 *432:25 *432:32 4.64286 
8 *432:32 *1925:CLK 9.3 
9 *432:32 *432:41 8.76786 
10 *432:41 *432:45 11.9107 
11 *432:45 *1921:CLK 14.3357 
12 *432:45 *432:56 2.55357 
13 *432:56 *1926:CLK 17.2107 
14 *432:56 *432:67 4.67857 
15 *432:67 *1922:CLK 13.8 
16 *432:67 *1927:CLK 18.7821 
17 *432:41 *1920:CLK 9.3 
18 *432:8 *432:98 11.6071 
19 *432:98 *1996:CLK 9.3 
20 *432:98 *2000:CLK 28.5321 
21 *432:4 *1994:CLK 11.0857 
*END

*D_NET *433 0.0116243
*CONN
*I *1937:CLK I *D sky130_fd_sc_hd__dfxtp_1
*I *2059:CLK I *D sky130_fd_sc_hd__dfxtp_1
*I *1896:CLK I *D sky130_fd_sc_hd__dfxtp_1
*I *1932:CLK I *D sky130_fd_sc_hd__dfxtp_1
*I *1964:CLK I *D sky130_fd_sc_hd__dfxtp_1
*I *1956:CLK I *D sky130_fd_sc_hd__dfxtp_1
*I *1980:CLK I *D sky130_fd_sc_hd__dfxtp_1
*I *2054:CLK I *D sky130_fd_sc_hd__dfxtp_1
*I *1983:CLK I *D sky130_fd_sc_hd__dfxtp_1
*I *2066:CLK I *D sky130_fd_sc_hd__dfxtp_1
*I *1899:CLK I *D sky130_fd_sc_hd__dfxtp_1
*I *1967:CLK I *D sky130_fd_sc_hd__dfxtp_1
*I *1959:CLK I *D sky130_fd_sc_hd__dfxtp_1
*I *2086:X O *D sky130_fd_sc_hd__clkbuf_8
*CAP
1 *1937:CLK 0.00016078
2 *2059:CLK 6.63224e-05
3 *1896:CLK 7.2558e-05
4 *1932:CLK 2.2004e-05
5 *1964:CLK 0.000139621
6 *1956:CLK 4.03717e-05
7 *1980:CLK 0
8 *2054:CLK 7.09899e-05
9 *1983:CLK 0
10 *2066:CLK 0.000242751
11 *1899:CLK 2.23854e-05
12 *1967:CLK 0.000200929
13 *1959:CLK 0
14 *2086:X 2.52056e-05
15 *433:124 0.00013888
16 *433:122 0.000349496
17 *433:93 0.00158662
18 *433:87 0.00145102
19 *433:80 3.3898e-05
20 *433:76 0.000282375
21 *433:62 7.09899e-05
22 *433:22 0.000669842
23 *433:16 0.00114226
24 *433:14 0.000980633
25 *433:10 0.000364312
26 *433:8 0.000384743
27 *2066:CLK *453:90 8.27217e-05
28 *433:8 *453:131 5.52302e-05
29 *433:10 *453:90 0
30 *433:10 *453:116 0
31 *433:14 *453:90 0
32 *1631:S1 *1937:CLK 0.0003799
33 *1631:S1 *433:122 0.000175084
34 *1733:B *2059:CLK 9.71197e-05
35 *1733:B *433:122 0.000104974
36 *1819:S *433:10 1.46717e-05
37 *1819:S *433:76 6.8646e-06
38 *1819:S *433:122 7.95674e-05
39 *1899:D *433:16 0.000234761
40 *1932:D *1932:CLK 6.05161e-06
41 *1932:D *433:10 6.74911e-05
42 *1932:D *433:76 8.68665e-05
43 *1956:D *433:93 0.000102851
44 *1959:D *1967:CLK 0
45 *1959:D *433:22 0
46 *1964:D *1956:CLK 0
47 *1964:D *1964:CLK 0
48 *1980:D *1932:CLK 1.02821e-05
49 *1980:D *433:80 5.52302e-05
50 *1980:D *433:93 1.47248e-05
51 *16:31 *2054:CLK 0.000102207
52 *262:92 *433:10 0.000559185
53 *262:92 *433:14 0.000146071
54 *262:115 *433:10 9.11048e-06
55 *262:115 *433:76 0.000182729
56 *262:115 *433:122 0.000127155
57 *270:47 *1937:CLK 0.00014759
58 *270:47 *433:122 2.05762e-05
59 *393:10 *433:93 0.000137983
60 *404:8 *433:16 9.83388e-05
*RES
1 *2086:X *433:8 14.3357 
2 *433:8 *433:10 7.41071 
3 *433:10 *433:14 6.44643 
4 *433:14 *433:16 10.3929 
5 *433:16 *433:22 11.9107 
6 *433:22 *1959:CLK 13.8 
7 *433:22 *1967:CLK 17.1929 
8 *433:16 *1899:CLK 9.72857 
9 *433:14 *2066:CLK 22.5143 
10 *433:10 *433:62 4.5 
11 *433:62 *1983:CLK 9.3 
12 *433:62 *2054:CLK 11.0679 
13 *433:8 *433:76 2.55357 
14 *433:76 *433:80 5.03571 
15 *433:80 *1980:CLK 9.3 
16 *433:80 *433:87 0.428571 
17 *433:87 *433:93 20.9643 
18 *433:93 *1956:CLK 14.5321 
19 *433:93 *1964:CLK 15.9786 
20 *433:87 *1932:CLK 9.83571 
21 *433:76 *433:122 4.98214 
22 *433:122 *433:124 4.5 
23 *433:124 *1896:CLK 10.2464 
24 *433:124 *2059:CLK 10.6571 
25 *433:122 *1937:CLK 19.3179 
*END

*D_NET *434 0.00632474
*CONN
*I *2056:CLK I *D sky130_fd_sc_hd__dfxtp_1
*I *1934:CLK I *D sky130_fd_sc_hd__dfxtp_1
*I *1953:CLK I *D sky130_fd_sc_hd__dfxtp_1
*I *1943:CLK I *D sky130_fd_sc_hd__dfxtp_1
*I *2102:A I *D sky130_fd_sc_hd__clkinvlp_4
*I *1935:CLK I *D sky130_fd_sc_hd__dfxtp_1
*I *1948:CLK I *D sky130_fd_sc_hd__dfxtp_1
*I *2057:CLK I *D sky130_fd_sc_hd__dfxtp_1
*I *1940:CLK I *D sky130_fd_sc_hd__dfxtp_1
*I *2087:X O *D sky130_fd_sc_hd__clkbuf_8
*CAP
1 *2056:CLK 8.97972e-05
2 *1934:CLK 4.30587e-05
3 *1953:CLK 9.78617e-05
4 *1943:CLK 0.000212485
5 *2102:A 0
6 *1935:CLK 3.59657e-05
7 *1948:CLK 0
8 *2057:CLK 0.000242505
9 *1940:CLK 0
10 *2087:X 0
11 *434:74 0.00014092
12 *434:72 0.000386407
13 *434:59 0.000553695
14 *434:50 0.000188094
15 *434:36 3.59657e-05
16 *434:23 0.000384432
17 *434:12 0.000316207
18 *434:4 0.000317774
19 *1638:A *1943:CLK 9.90367e-05
20 *1644:A1 *1943:CLK 1.21258e-05
21 *1660:B1 *1943:CLK 0.000197984
22 *1660:B1 *2056:CLK 0.000166269
23 *1660:B1 *434:72 0.00058838
24 *1734:S1 *434:12 7.92879e-05
25 *1735:A2 *1943:CLK 7.30689e-05
26 *1735:A2 *434:72 5.26184e-05
27 *1770:S *2057:CLK 0
28 *1770:S *434:12 0.000369097
29 *1770:S *434:23 0
30 *16:31 *2057:CLK 0.000169373
31 *177:18 *1935:CLK 1.58163e-05
32 *177:18 *1943:CLK 5.52302e-05
33 *231:55 *1934:CLK 3.30352e-05
34 *231:55 *1953:CLK 6.28241e-05
35 *253:10 *2057:CLK 0.000198698
36 *253:10 *434:12 0
37 *253:10 *434:23 0.000196269
38 *263:44 *434:23 0.000186662
39 *264:30 *434:12 9.71197e-05
40 *264:30 *434:50 0.000356028
41 *264:30 *434:59 9.60875e-05
42 *267:30 *434:23 9.92409e-05
43 *408:402 *434:12 2.49484e-05
44 *408:431 *434:12 5.03772e-05
45 *409:166 *2056:CLK 0
46 *409:166 *434:72 0
47 *409:172 *1943:CLK 0
48 *409:172 *434:72 0
*RES
1 *2087:X *434:4 9.3 
2 *434:4 *434:12 14.625 
3 *434:12 *1940:CLK 9.3 
4 *434:12 *434:23 8.82143 
5 *434:23 *2057:CLK 19.3536 
6 *434:23 *434:36 4.5 
7 *434:36 *1948:CLK 9.3 
8 *434:36 *1935:CLK 9.83571 
9 *434:4 *434:50 3.41071 
10 *434:50 *2102:A 9.3 
11 *434:50 *434:59 5.44643 
12 *434:59 *1943:CLK 18.9429 
13 *434:59 *434:72 7.71429 
14 *434:72 *434:74 4.5 
15 *434:74 *1953:CLK 11.0679 
16 *434:74 *1934:CLK 10.2464 
17 *434:72 *2056:CLK 16.05 
*END

*D_NET *435 0.000690631
*CONN
*I *1681:B1 I *D sky130_fd_sc_hd__o31a_1
*I *2104:X O *D sky130_fd_sc_hd__clkbuf_1
*CAP
1 *1681:B1 0.000238252
2 *2104:X 0.000238252
3 *1681:B1 *1678:A1 1.58163e-05
4 *1681:B1 *462:29 0
5 *1681:B1 *485:8 0.000148189
6 *214:14 *1681:B1 0
7 *215:12 *1681:B1 5.01213e-05
*RES
1 *2104:X *1681:B1 31.3143 
*END

*D_NET *436 0.0259566
*CONN
*I *1802:A1 I *D sky130_fd_sc_hd__mux2_1
*I *1821:A1 I *D sky130_fd_sc_hd__mux2_1
*I *1766:A1 I *D sky130_fd_sc_hd__mux2_1
*I *1784:A1 I *D sky130_fd_sc_hd__mux2_1
*I *1775:A0 I *D sky130_fd_sc_hd__mux2_1
*I *1876:A0 I *D sky130_fd_sc_hd__mux2_1
*I *1858:A0 I *D sky130_fd_sc_hd__mux2_1
*I *1831:A1 I *D sky130_fd_sc_hd__mux2_1
*I *1867:A1 I *D sky130_fd_sc_hd__mux2_1
*I *1812:A0 I *D sky130_fd_sc_hd__mux2_1
*I *1849:A1 I *D sky130_fd_sc_hd__mux2_1
*I *1840:A0 I *D sky130_fd_sc_hd__mux2_1
*I *1893:A1 I *D sky130_fd_sc_hd__mux2_1
*I *1884:A0 I *D sky130_fd_sc_hd__mux2_1
*I *1757:A0 I *D sky130_fd_sc_hd__mux2_1
*I *1793:A0 I *D sky130_fd_sc_hd__mux2_1
*I *2105:X O *D sky130_fd_sc_hd__clkbuf_4
*CAP
1 *1802:A1 0.000241568
2 *1821:A1 0
3 *1766:A1 0
4 *1784:A1 0.000702066
5 *1775:A0 9.70537e-05
6 *1876:A0 3.58313e-05
7 *1858:A0 0
8 *1831:A1 0.000189673
9 *1867:A1 0
10 *1812:A0 0
11 *1849:A1 0.000146192
12 *1840:A0 0.000217648
13 *1893:A1 0.000114195
14 *1884:A0 0
15 *1757:A0 0
16 *1793:A0 0.000120671
17 *2105:X 0.000467822
18 *436:133 0.00112285
19 *436:104 0.0012727
20 *436:100 0.000418557
21 *436:94 0.000552222
22 *436:92 0.000324563
23 *436:79 0.000606082
24 *436:77 0.00123437
25 *436:69 0.00141326
26 *436:58 0.000479783
27 *436:52 0.000909622
28 *436:48 0.000790326
29 *436:36 0.00125086
30 *436:25 0.000795828
31 *436:21 0.00089331
32 *436:10 0.000940089
33 *436:36 *457:18 6.74911e-05
34 *436:48 *457:18 7.61349e-05
35 *436:48 *457:29 0
36 *436:48 *457:31 0
37 *436:58 *457:31 9.40388e-05
38 *1632:A2 *436:48 0.000136039
39 *1650:S0 *436:133 0
40 *1653:A0 *436:21 0
41 *1653:A2 *1802:A1 0
42 *1653:A2 *436:21 0
43 *1653:A2 *436:25 0.000151061
44 *1655:A3 *436:69 0.000161947
45 *1657:A1 *436:92 0.000247771
46 *1658:A0 *436:133 5.89863e-05
47 *1658:A3 *436:133 5.33005e-05
48 *1733:A *1775:A0 0.000140933
49 *1734:A2 *436:77 9.24299e-05
50 *1734:S0 *436:77 0.000947864
51 *1737:S0 *1840:A0 0
52 *1739:A1 *436:77 5.01213e-05
53 *1757:S *436:36 9.83388e-05
54 *1766:A0 *436:52 9.4724e-05
55 *1766:A0 *436:58 0.000177941
56 *1770:S *436:77 0.000153078
57 *1775:A1 *436:69 0
58 *1775:S *436:69 2.56694e-05
59 *1775:S *436:77 0.000102883
60 *1779:A0 *436:77 0
61 *1779:S *1784:A1 4.87953e-05
62 *1793:A1 *436:21 0
63 *1802:A0 *1802:A1 2.89114e-05
64 *1812:A1 *436:133 9.71197e-05
65 *1821:A0 *436:48 0.000148196
66 *1821:S *436:48 0.000464504
67 *1831:A0 *1831:A1 0.000401764
68 *1831:S *1831:A1 2.89114e-05
69 *1840:A1 *1840:A0 3.85567e-05
70 *1840:S *1840:A0 5.49489e-05
71 *1849:A0 *1849:A1 0.000318101
72 *1849:S *1849:A1 5.71472e-05
73 *1858:A1 *1831:A1 5.52302e-05
74 *1858:S *1831:A1 2.89114e-05
75 *1858:S *436:92 0.000767765
76 *1862:S *1840:A0 5.2781e-05
77 *1866:S *1840:A0 6.55528e-06
78 *1866:S *436:133 0.00012869
79 *1867:A0 *436:133 1.23053e-05
80 *1875:S *436:77 0.000282661
81 *1883:A1 *436:48 0
82 *1883:S *436:52 0.000103267
83 *1883:S *436:58 0.000417891
84 *1884:A1 *436:69 4.87854e-05
85 *1888:S *436:92 0
86 *1893:A0 *1893:A1 5.52238e-05
87 *1893:A0 *436:92 8.66324e-05
88 *1901:D *436:21 0
89 *1901:D *436:25 0.000170964
90 *1945:CLK *1784:A1 0.000140933
91 *1945:D *1784:A1 8.82363e-05
92 *1948:D *436:77 0.000666745
93 *1961:D *436:10 1.02504e-05
94 *1961:D *436:21 9.30093e-05
95 *1968:CLK *436:36 4.16114e-05
96 *1968:CLK *436:48 3.19202e-05
97 *1969:D *1802:A1 0
98 *2010:D *1840:A0 4.85049e-06
99 *2043:D *436:133 9.91224e-05
100 *2050:D *436:77 0.000104974
101 *2058:D *436:48 0.000100831
102 *231:55 *436:69 0.000128875
103 *231:59 *436:58 5.33005e-05
104 *231:59 *436:69 8.46829e-05
105 *253:10 *436:77 0
106 *263:55 *436:69 0
107 *266:71 *436:10 0
108 *269:107 *436:133 6.8646e-06
109 *270:47 *436:48 0.000117369
110 *276:61 *436:92 3.5707e-05
111 *276:61 *436:100 0.000441731
112 *276:67 *436:100 4.10641e-05
113 *276:67 *436:104 9.90431e-05
114 *277:38 *436:77 0.000130458
115 *278:41 *436:92 0
116 *310:10 *436:69 2.19684e-05
117 *318:10 *1784:A1 1.40415e-05
118 *334:10 *436:69 0
119 *390:12 *436:133 0.000151333
120 *407:311 *436:133 0.000119769
121 *407:373 *436:77 0.000522077
122 *408:402 *436:69 0
123 *416:20 *436:77 2.56694e-05
124 *416:39 *1876:A0 4.38128e-05
125 *416:39 *436:79 9.60939e-05
126 *420:16 *436:10 8.90314e-05
127 *420:22 *436:10 5.06983e-05
128 *420:22 *436:21 0
129 *420:35 *436:21 0
130 *427:94 *436:100 1.33343e-05
131 *427:94 *436:104 0.000114665
*RES
1 *2105:X *436:10 20.5857 
2 *436:10 *1793:A0 15.1571 
3 *436:10 *436:21 6.5 
4 *436:21 *436:25 11.1964 
5 *436:25 *1757:A0 9.3 
6 *436:25 *436:36 13.25 
7 *436:36 *436:48 22.4821 
8 *436:48 *436:52 5.83929 
9 *436:52 *436:58 10.7321 
10 *436:58 *1884:A0 9.3 
11 *436:58 *436:69 12.1964 
12 *436:69 *436:77 35.3393 
13 *436:77 *436:79 2.17857 
14 *436:79 *1893:A1 10.6571 
15 *436:79 *436:92 18.8393 
16 *436:92 *436:94 0.428571 
17 *436:94 *436:100 7.14286 
18 *436:100 *436:104 6.67857 
19 *436:104 *1840:A0 18.1214 
20 *436:104 *436:133 28.75 
21 *436:133 *1849:A1 13.1393 
22 *436:133 *1812:A0 9.3 
23 *436:100 *1867:A1 9.3 
24 *436:94 *1831:A1 14.3536 
25 *436:92 *1858:A0 9.3 
26 *436:77 *1876:A0 9.83571 
27 *436:69 *1775:A0 15.1571 
28 *436:52 *1784:A1 24.6036 
29 *436:48 *1766:A1 9.3 
30 *436:36 *1821:A1 13.8 
31 *436:21 *1802:A1 17.8 
*END

*D_NET *437 0.00116975
*CONN
*I *1699:B1_N I *D sky130_fd_sc_hd__a21boi_2
*I *2106:X O *D sky130_fd_sc_hd__clkbuf_1
*CAP
1 *1699:B1_N 0.000443482
2 *2106:X 0.000443482
3 *1699:B1_N *438:41 5.4115e-05
4 *1667:S *1699:B1_N 0.000114077
5 *1673:A *1699:B1_N 2.89016e-05
6 *1699:A1 *1699:B1_N 8.5696e-05
*RES
1 *2106:X *1699:B1_N 35.4571 
*END

*D_NET *438 0.020549
*CONN
*I *1998:RESET_B I *D sky130_fd_sc_hd__dfrtp_2
*I *1997:RESET_B I *D sky130_fd_sc_hd__dfrtp_1
*I *2000:RESET_B I *D sky130_fd_sc_hd__dfrtp_1
*I *1928:RESET_B I *D sky130_fd_sc_hd__dfrtp_1
*I *1923:RESET_B I *D sky130_fd_sc_hd__dfrtp_1
*I *1924:RESET_B I *D sky130_fd_sc_hd__dfrtp_1
*I *1999:RESET_B I *D sky130_fd_sc_hd__dfrtp_1
*I *1929:RESET_B I *D sky130_fd_sc_hd__dfrtp_1
*I *2001:RESET_B I *D sky130_fd_sc_hd__dfrtp_1
*I *2002:RESET_B I *D sky130_fd_sc_hd__dfrtp_1
*I *1927:RESET_B I *D sky130_fd_sc_hd__dfrtp_1
*I *1922:RESET_B I *D sky130_fd_sc_hd__dfrtp_1
*I *1995:RESET_B I *D sky130_fd_sc_hd__dfrtp_4
*I *1996:RESET_B I *D sky130_fd_sc_hd__dfrtp_4
*I *1926:RESET_B I *D sky130_fd_sc_hd__dfrtp_1
*I *1921:RESET_B I *D sky130_fd_sc_hd__dfrtp_1
*I *1994:RESET_B I *D sky130_fd_sc_hd__dfrtp_4
*I *1925:RESET_B I *D sky130_fd_sc_hd__dfrtp_1
*I *1920:RESET_B I *D sky130_fd_sc_hd__dfrtp_1
*I *2107:X O *D sky130_fd_sc_hd__clkbuf_8
*CAP
1 *1998:RESET_B 0.000323982
2 *1997:RESET_B 3.74078e-05
3 *2000:RESET_B 0.00024242
4 *1928:RESET_B 0.000170906
5 *1923:RESET_B 0
6 *1924:RESET_B 0
7 *1999:RESET_B 0.000724455
8 *1929:RESET_B 0.000793679
9 *2001:RESET_B 6.90701e-06
10 *2002:RESET_B 0.000243091
11 *1927:RESET_B 1.10427e-05
12 *1922:RESET_B 6.01023e-05
13 *1995:RESET_B 0.000173755
14 *1996:RESET_B 0.00108544
15 *1926:RESET_B 0.0010489
16 *1921:RESET_B 4.71781e-05
17 *1994:RESET_B 0.000134645
18 *1925:RESET_B 0.00110198
19 *1920:RESET_B 1.01215e-05
20 *2107:X 0.000419729
21 *438:185 0.000443807
22 *438:183 0.000487961
23 *438:166 0.000487773
24 *438:155 0.000630568
25 *438:123 0.000515157
26 *438:117 0.00135666
27 *438:103 0.00108173
28 *438:99 0.000427956
29 *438:87 0.000360373
30 *438:55 0.00050336
31 *438:41 0.000576963
32 *438:12 0.00179524
33 *1920:RESET_B *1664:B 1.20135e-05
34 *1925:RESET_B *1664:B 6.31721e-05
35 *1925:RESET_B *1920:D 4.93979e-05
36 *1926:RESET_B *1921:D 0.000138106
37 *1927:RESET_B *1922:D 2.51837e-05
38 *1928:RESET_B *1903:D 0
39 *1929:RESET_B *1926:D 0
40 *1929:RESET_B *459:20 3.06406e-05
41 *1994:RESET_B *459:20 0.000134758
42 *1995:RESET_B *459:20 7.83366e-05
43 *1996:RESET_B *1921:D 3.05973e-05
44 *1998:RESET_B *1910:D 0
45 *1998:RESET_B *1997:D 5.33786e-05
46 *1998:RESET_B *1998:D 0
47 *1998:RESET_B *2002:D 0
48 *1999:RESET_B *1908:D 0
49 *1999:RESET_B *1910:D 0
50 *1999:RESET_B *1999:D 0
51 *1999:RESET_B *458:42 0.000119065
52 *1999:RESET_B *459:20 0
53 *2000:RESET_B *1706:A3 0.000145771
54 *2000:RESET_B *1997:D 4.46186e-06
55 *2001:RESET_B *447:20 1.12381e-05
56 *2002:RESET_B *1910:D 0.00010096
57 *2002:RESET_B *447:20 8.78006e-05
58 *438:12 *1664:B 2.40379e-05
59 *438:41 *2118:A 0
60 *438:55 *1663:A 0.00010326
61 *438:87 *1663:A 9.11365e-06
62 *438:103 *1922:D 4.43256e-05
63 *438:117 *1922:D 0.000156119
64 *438:117 *1926:D 0
65 *438:117 *1927:D 5.52238e-05
66 *438:117 *459:20 0.000143484
67 *438:123 *447:20 2.84677e-05
68 *438:155 *1661:B 0
69 *438:155 *467:12 0
70 *438:166 *1661:B 0
71 *438:166 *1903:D 0
72 *438:166 *1909:D 0
73 *438:166 *458:42 0
74 *438:185 *1997:D 0.000145584
75 full *438:12 0
76 *1663:B *438:87 0.000129879
77 *1667:S *1926:RESET_B 5.52302e-05
78 *1667:S *438:41 0
79 *1667:S *438:55 0
80 *1670:B1 *438:155 0
81 *1672:A1 *438:99 5.08481e-05
82 *1672:A1 *438:155 4.33438e-05
83 *1672:A2 *438:87 0.000195555
84 *1672:A2 *438:99 0.000175512
85 *1673:B *438:41 9.7478e-05
86 *1699:A1 *438:41 0.000150625
87 *1699:B1_N *438:41 5.4115e-05
88 *1700:A *1998:RESET_B 0
89 *1706:A2 *1995:RESET_B 6.42242e-05
90 *1710:A *1998:RESET_B 0
91 *1710:A *438:185 0
92 *1711:A1 *2000:RESET_B 0
93 *1711:A1 *438:185 0
94 *1926:CLK *1996:RESET_B 0.000195386
95 *1927:CLK *438:117 5.23057e-05
96 *1929:CLK *1999:RESET_B 1.92905e-05
97 *2001:CLK *2002:RESET_B 0.000145771
98 *2068:A *1999:RESET_B 0.000160136
99 *165:29 *1997:RESET_B 0.000179995
100 *198:10 *438:155 0.00013966
101 *198:12 *438:99 4.73656e-05
102 *198:12 *438:155 0.00015134
103 *199:12 *438:87 0.00024292
104 *199:12 *438:99 0.000117896
105 *209:10 *438:41 2.49484e-05
106 *209:10 *438:55 1.18064e-05
107 *209:10 *438:87 0
108 *411:14 *1994:RESET_B 0
109 *411:175 *438:185 0
110 *411:179 *1997:RESET_B 5.17792e-05
111 *411:203 *438:185 0
112 *412:10 *1995:RESET_B 6.86411e-05
113 *412:14 *1995:RESET_B 0.000179995
114 *412:271 *1921:RESET_B 4.96155e-05
115 *412:271 *1995:RESET_B 7.43578e-06
116 *412:271 *438:41 0.000173083
117 *413:10 *1996:RESET_B 3.44618e-05
118 *413:76 *2000:RESET_B 0.00014285
119 *423:12 *1998:RESET_B 0
120 *423:14 *1998:RESET_B 0
121 *432:41 *1925:RESET_B 0.000237752
*RES
1 *2107:X *438:12 25.7464 
2 *438:12 *1920:RESET_B 0.473214 
3 *438:12 *1925:RESET_B 13.7768 
4 *1925:RESET_B *1994:RESET_B 12.1607 
5 *438:12 *438:41 12.8214 
6 *438:41 *1921:RESET_B 5.38393 
7 *438:41 *438:55 7.08929 
8 *438:55 *1926:RESET_B 2.9375 
9 *1926:RESET_B *1996:RESET_B 12.2321 
10 *1996:RESET_B *1995:RESET_B 13.4732 
11 *438:55 *438:87 10.75 
12 *438:87 *1922:RESET_B 5.40179 
13 *438:87 *438:99 2.85714 
14 *438:99 *438:103 5.44643 
15 *438:103 *1927:RESET_B 0.473214 
16 *438:103 *438:117 19.8929 
17 *438:117 *438:123 7.92857 
18 *438:123 *2002:RESET_B 5.40179 
19 *438:123 *2001:RESET_B 0.473214 
20 *438:117 *1929:RESET_B 5.83929 
21 *1929:RESET_B *1999:RESET_B 22.5982 
22 *438:99 *438:155 6.5 
23 *438:155 *1924:RESET_B 4.5 
24 *438:155 *438:166 5.64286 
25 *438:166 *1923:RESET_B 4.5 
26 *438:166 *1928:RESET_B 7.66071 
27 *2002:RESET_B *438:183 4.5 
28 *438:183 *438:185 3.46429 
29 *438:185 *2000:RESET_B 9.20536 
30 *438:185 *1997:RESET_B 6.20536 
31 *438:183 *1998:RESET_B 9.48214 
*END

*D_NET *439 0.000645814
*CONN
*I *2117:A I *D sky130_fd_sc_hd__buf_1
*I *1680:Y O *D sky130_fd_sc_hd__nor3_1
*CAP
1 *2117:A 0.000194467
2 *1680:Y 0.000194467
3 *2117:A *485:8 0.000101873
4 empty *2117:A 3.454e-05
5 *1680:B *2117:A 5.52238e-05
6 *2108:A *2117:A 6.52439e-05
*RES
1 *1680:Y *2117:A 32.5107 
*END

*D_NET *440 0.000492212
*CONN
*I *2118:A I *D sky130_fd_sc_hd__buf_1
*I *1673:X O *D sky130_fd_sc_hd__and2_1
*CAP
1 *2118:A 0.000246106
2 *1673:X 0.000246106
3 *2106:A *2118:A 0
4 *438:41 *2118:A 0
*RES
1 *1673:X *2118:A 31.725 
*END

*D_NET *441 0.000325481
*CONN
*I *2119:A I *D sky130_fd_sc_hd__buf_1
*I *1912:Q O *D sky130_fd_sc_hd__dfxtp_1
*CAP
1 *2119:A 0.000156648
2 *1912:Q 0.000156648
3 *2119:A *1661:B 0
4 rdata[0] *2119:A 1.21859e-05
*RES
1 *1912:Q *2119:A 30.0821 
*END

*D_NET *442 0.000747463
*CONN
*I *2120:A I *D sky130_fd_sc_hd__buf_1
*I *1913:Q O *D sky130_fd_sc_hd__dfxtp_1
*CAP
1 *2120:A 0.000337939
2 *1913:Q 0.000337939
3 *2120:A *452:10 7.15846e-05
4 *400:10 *2120:A 0
*RES
1 *1913:Q *2120:A 33.7429 
*END

*D_NET *443 0.0007251
*CONN
*I *2121:A I *D sky130_fd_sc_hd__buf_1
*I *1914:Q O *D sky130_fd_sc_hd__dfxtp_1
*CAP
1 *2121:A 0.000203496
2 *1914:Q 0.000203496
3 *2121:A *2123:A 0.000318107
*RES
1 *1914:Q *2121:A 23.1536 
*END

*D_NET *444 0.00123312
*CONN
*I *2122:A I *D sky130_fd_sc_hd__buf_1
*I *1915:Q O *D sky130_fd_sc_hd__dfxtp_1
*CAP
1 *2122:A 0.00050058
2 *1915:Q 0.00050058
3 *2122:A *2126:A 0
4 *1918:CLK *2122:A 0.000231964
*RES
1 *1915:Q *2122:A 35.0107 
*END

*D_NET *445 0.00266363
*CONN
*I *2123:A I *D sky130_fd_sc_hd__buf_1
*I *1916:Q O *D sky130_fd_sc_hd__dfxtp_1
*CAP
1 *2123:A 0.00109561
2 *1916:Q 0.00109561
3 *2123:A *452:10 5.33433e-05
4 *2121:A *2123:A 0.000318107
5 *29:18 *2123:A 0
6 *266:35 *2123:A 0.00010096
*RES
1 *1916:Q *2123:A 47.1 
*END

*D_NET *446 0.0196541
*CONN
*I *1911:RESET_B I *D sky130_fd_sc_hd__dfrtp_1
*I *1906:RESET_B I *D sky130_fd_sc_hd__dfrtp_1
*I *2035:RESET_B I *D sky130_fd_sc_hd__dfrtp_1
*I *2031:RESET_B I *D sky130_fd_sc_hd__dfrtp_4
*I *2029:RESET_B I *D sky130_fd_sc_hd__dfrtp_4
*I *2028:RESET_B I *D sky130_fd_sc_hd__dfrtp_4
*I *2030:RESET_B I *D sky130_fd_sc_hd__dfrtp_4
*I *2034:RESET_B I *D sky130_fd_sc_hd__dfrtp_1
*I *2027:RESET_B I *D sky130_fd_sc_hd__dfrtp_4
*I *2032:RESET_B I *D sky130_fd_sc_hd__dfrtp_1
*I *1907:RESET_B I *D sky130_fd_sc_hd__dfrtp_1
*I *1910:RESET_B I *D sky130_fd_sc_hd__dfrtp_1
*I *2033:RESET_B I *D sky130_fd_sc_hd__dfrtp_1
*I *1902:RESET_B I *D sky130_fd_sc_hd__dfrtp_1
*I *1905:RESET_B I *D sky130_fd_sc_hd__dfrtp_1
*I *1904:RESET_B I *D sky130_fd_sc_hd__dfrtp_1
*I *1909:RESET_B I *D sky130_fd_sc_hd__dfrtp_1
*I *1903:RESET_B I *D sky130_fd_sc_hd__dfrtp_1
*I *1908:RESET_B I *D sky130_fd_sc_hd__dfrtp_1
*I *2108:X O *D sky130_fd_sc_hd__clkbuf_8
*CAP
1 *1911:RESET_B 7.05734e-05
2 *1906:RESET_B 0.00038427
3 *2035:RESET_B 2.62119e-05
4 *2031:RESET_B 0.000165063
5 *2029:RESET_B 5.35846e-05
6 *2028:RESET_B 0.000184938
7 *2030:RESET_B 0.00123657
8 *2034:RESET_B 0.000134442
9 *2027:RESET_B 0.000654053
10 *2032:RESET_B 0
11 *1907:RESET_B 0.000108859
12 *1910:RESET_B 2.62119e-05
13 *2033:RESET_B 0.000544997
14 *1902:RESET_B 0.000194184
15 *1905:RESET_B 2.80259e-05
16 *1904:RESET_B 0.000127162
17 *1909:RESET_B 0.000211999
18 *1903:RESET_B 0
19 *1908:RESET_B 0.000325334
20 *2108:X 0.000362224
21 *446:183 0.000611567
22 *446:151 0.000750067
23 *446:135 0.00107544
24 *446:131 0.000405267
25 *446:121 0.000492147
26 *446:86 0.00020693
27 *446:84 0.000216201
28 *446:82 0.00101255
29 *446:68 0.000689022
30 *446:59 0.000325083
31 *446:49 0.000266835
32 *446:14 0.00040497
33 *446:12 0.000273885
34 *446:10 0.000542086
35 *1904:RESET_B *1928:D 4.03318e-05
36 *1904:RESET_B *458:42 6.42242e-05
37 *1908:RESET_B *1903:D 0.000696664
38 *1908:RESET_B *1909:D 0.000394712
39 *1908:RESET_B *1923:D 0.000129868
40 *1908:RESET_B *458:42 0.000153472
41 *1909:RESET_B *1904:D 0.000133688
42 *1911:RESET_B *461:14 3.34687e-05
43 *1911:RESET_B *462:12 0
44 *2028:RESET_B *2028:D 0
45 *2033:RESET_B *460:10 7.84156e-05
46 *2034:RESET_B *461:14 0.000139907
47 *446:10 *1625:A 1.02821e-05
48 *446:10 *1627:A 2.89016e-05
49 *446:10 *1675:A_N 0.000120526
50 *446:10 *1675:B 7.70134e-06
51 *446:10 *459:29 1.37946e-05
52 *446:12 *1904:D 0.000104974
53 *446:12 *458:42 0.000112532
54 *446:14 *1909:D 0.000216771
55 *446:14 *458:42 0.000148851
56 *446:49 *458:42 0.000168703
57 *446:59 *1674:A_N 0.000128154
58 *446:59 *1911:D 0
59 *446:59 *458:42 0.000222885
60 *446:59 *461:14 9.24395e-05
61 *446:59 *462:12 0
62 *446:121 *1911:D 0.000179062
63 *446:131 *1911:D 4.46186e-06
64 *446:131 *462:12 0
65 *446:135 *1697:A 0.000126439
66 *446:151 *2029:D 0.000315158
67 *446:183 *461:14 0.000142093
68 *446:183 *462:12 0
69 *1677:A2 *446:10 2.77289e-05
70 *1678:C1 *446:59 1.41029e-05
71 *1689:A *2028:RESET_B 0
72 *1689:A *2029:RESET_B 0.000136189
73 *1691:A *446:151 0.000316252
74 *1691:B *446:151 0.000186662
75 *1902:CLK *2033:RESET_B 9.90431e-05
76 *1906:CLK *1906:RESET_B 5.41609e-05
77 *1908:CLK *1908:RESET_B 0.000303994
78 *1923:CLK *1908:RESET_B 0.000178847
79 *2030:CLK *2030:RESET_B 2.89016e-05
80 *2068:A *1907:RESET_B 0.000254337
81 *2068:A *446:82 7.6644e-05
82 *2068:A *446:84 0.000297559
83 *2068:A *446:86 0.000154762
84 *2071:A *2027:RESET_B 0.000490416
85 *216:18 *1905:RESET_B 2.51837e-05
86 *409:8 *2028:RESET_B 0
87 *410:8 *446:151 9.90367e-05
88 *418:84 *446:121 9.01238e-05
89 *418:84 *446:131 1.31516e-05
90 *418:97 *446:131 0.000204302
91 *418:97 *446:135 1.9868e-05
92 *418:110 *446:135 0.000114305
93 *418:135 *446:12 8.06331e-05
94 *418:135 *446:49 9.97648e-05
95 *418:135 *446:59 4.73471e-05
96 *418:137 *446:12 9.12446e-05
97 *418:137 *446:14 4.46186e-06
98 *418:139 *446:14 2.58997e-05
*RES
1 *2108:X *446:10 19.9964 
2 *446:10 *446:12 4.07143 
3 *446:12 *446:14 3.46429 
4 *446:14 *1908:RESET_B 17.3482 
5 *446:14 *1903:RESET_B 4.5 
6 *446:12 *1909:RESET_B 6.20536 
7 *1909:RESET_B *1904:RESET_B 11.5268 
8 *446:10 *446:49 2.55357 
9 *446:49 *1905:RESET_B 4.97321 
10 *446:49 *446:59 5.28571 
11 *446:59 *1902:RESET_B 4.5 
12 *1902:RESET_B *446:68 2.95536 
13 *446:68 *2033:RESET_B 6.24107 
14 *2033:RESET_B *446:82 7.5625 
15 *446:82 *446:84 3.76786 
16 *446:84 *446:86 1.94643 
17 *446:86 *1910:RESET_B 5.03571 
18 *446:86 *1907:RESET_B 7.66071 
19 *446:84 *2032:RESET_B 4.5 
20 *446:82 *2027:RESET_B 13.3304 
21 *446:68 *446:121 8.875 
22 *446:121 *2034:RESET_B 7.02679 
23 *446:121 *446:131 4.98214 
24 *446:131 *446:135 9.17857 
25 *446:135 *2030:RESET_B 8.59821 
26 *2030:RESET_B *446:151 16.0982 
27 *446:151 *2028:RESET_B 7.66071 
28 *446:151 *2029:RESET_B 5.79464 
29 *446:135 *2031:RESET_B 2.54464 
30 *446:131 *2035:RESET_B 5.03571 
31 *446:59 *446:183 3.46429 
32 *446:183 *1906:RESET_B 9.63393 
33 *446:183 *1911:RESET_B 5.83929 
*END

*D_NET *447 0.00975396
*CONN
*I *2124:A I *D sky130_fd_sc_hd__buf_1
*I *1917:Q O *D sky130_fd_sc_hd__dfxtp_1
*CAP
1 *2124:A 0
2 *1917:Q 0.000476542
3 *447:20 0.00323585
4 *447:12 0.00371239
5 *447:12 *451:141 3.52562e-05
6 *447:20 *1669:A 0.000276186
7 *447:20 *1669:B 0.000149489
8 *447:20 *1909:D 4.942e-05
9 *1716:A3 *447:12 0.000241198
10 *1758:D *447:12 0.000140933
11 *1776:B_N *447:20 3.97677e-05
12 *1776:D *447:20 8.00315e-05
13 *1785:A *447:20 2.74834e-05
14 *1786:A1 *447:12 3.34295e-05
15 *1794:B *447:20 4.87832e-05
16 *1794:D *447:20 5.75147e-05
17 *2001:CLK *447:20 0.000195396
18 *2001:RESET_B *447:20 1.12381e-05
19 *2002:RESET_B *447:20 8.78006e-05
20 *198:10 *447:20 5.33005e-05
21 *263:6 *447:12 6.87574e-05
22 *263:32 *447:12 7.43578e-06
23 *411:126 *447:12 1.63458e-05
24 *411:207 *447:20 0.000102197
25 *412:121 *447:20 0.000101001
26 *412:123 *447:20 2.44318e-05
27 *412:125 *447:20 7.24613e-05
28 *416:96 *447:12 0.000380852
29 *438:123 *447:20 2.84677e-05
*RES
1 *1917:Q *447:12 27.5143 
2 *447:12 *447:20 44.125 
3 *447:20 *2124:A 9.3 
*END

*D_NET *448 0.000522928
*CONN
*I *2125:A I *D sky130_fd_sc_hd__buf_1
*I *1918:Q O *D sky130_fd_sc_hd__dfxtp_1
*CAP
1 *2125:A 0.000216948
2 *1918:Q 0.000216948
3 *2125:A *2126:A 0
4 *2125:A *452:10 8.90314e-05
*RES
1 *1918:Q *2125:A 31.725 
*END

*D_NET *449 0.00191748
*CONN
*I *2126:A I *D sky130_fd_sc_hd__buf_1
*I *1919:Q O *D sky130_fd_sc_hd__dfxtp_1
*CAP
1 *2126:A 0.000534693
2 *1919:Q 0.000534693
3 *2126:A *452:10 0
4 *2126:A *452:14 0
5 *1918:D *2126:A 7.36267e-05
6 *2122:A *2126:A 0
7 *2125:A *2126:A 0
8 *262:28 *2126:A 2.22043e-05
9 *262:36 *2126:A 0.000752267
*RES
1 *1919:Q *2126:A 40.2964 
*END

*D_NET *450 0.0199063
*CONN
*I *1711:A4 I *D sky130_fd_sc_hd__a41o_1
*I *1706:A3 I *D sky130_fd_sc_hd__a31o_1
*I *1823:C I *D sky130_fd_sc_hd__and4bb_4
*I *1859:C I *D sky130_fd_sc_hd__and4bb_4
*I *1813:C I *D sky130_fd_sc_hd__and4bb_4
*I *1758:C I *D sky130_fd_sc_hd__and4b_4
*I *1700:B I *D sky130_fd_sc_hd__nor2_1
*I *1776:C I *D sky130_fd_sc_hd__and4bb_4
*I *1710:C I *D sky130_fd_sc_hd__nand4_4
*I *1794:C I *D sky130_fd_sc_hd__and4b_4
*I *1785:C I *D sky130_fd_sc_hd__nand4_4
*I *1767:B I *D sky130_fd_sc_hd__nand4b_4
*I *1749:B I *D sky130_fd_sc_hd__nand4b_4
*I *1885:C I *D sky130_fd_sc_hd__and4b_4
*I *1832:B I *D sky130_fd_sc_hd__nand4b_4
*I *1868:B I *D sky130_fd_sc_hd__nand4b_4
*I *1703:A2 I *D sky130_fd_sc_hd__a21oi_1
*I *1850:C I *D sky130_fd_sc_hd__nand4_4
*I *1804:C I *D sky130_fd_sc_hd__nand4_4
*I *1841:C I *D sky130_fd_sc_hd__and4b_4
*I *2116:X O *D sky130_fd_sc_hd__buf_8
*CAP
1 *1711:A4 0
2 *1706:A3 0.000356507
3 *1823:C 0
4 *1859:C 0
5 *1813:C 0
6 *1758:C 8.99824e-05
7 *1700:B 0.000194876
8 *1776:C 5.98876e-05
9 *1710:C 2.23854e-05
10 *1794:C 0.000342129
11 *1785:C 0
12 *1767:B 6.93426e-05
13 *1749:B 1.40355e-05
14 *1885:C 8.83916e-05
15 *1832:B 5.60713e-05
16 *1868:B 3.33736e-05
17 *1703:A2 0.000283031
18 *1850:C 0
19 *1804:C 1.99857e-05
20 *1841:C 0.000244027
21 *2116:X 0.000150577
22 *450:226 0.000598522
23 *450:196 0.000224001
24 *450:170 0.000328353
25 *450:161 0.000599813
26 *450:142 0.000845968
27 *450:140 0.000158629
28 *450:131 0.000133385
29 *450:118 0.000259343
30 *450:107 0.00020235
31 *450:96 0.000232378
32 *450:61 0.000407971
33 *450:50 0.000273984
34 *450:39 0.000247548
35 *450:22 0.000344029
36 *450:18 0.000216078
37 *450:16 0.000142047
38 *450:14 0.000411266
39 *450:12 0.000920263
40 *450:8 0.000901588
41 *1706:A3 *1908:D 0.00012389
42 *1706:A3 *2000:D 0.000141835
43 *450:8 *2000:D 5.52238e-05
44 *450:22 *451:115 3.90513e-05
45 *450:107 *451:115 0.00011062
46 *450:118 *451:115 7.15687e-05
47 *450:131 *451:115 3.34687e-05
48 *450:226 *2000:D 0.000272665
49 *1703:A1 *1703:A2 6.04561e-05
50 *1703:B1 *1703:A2 1.38054e-05
51 *1705:A *1700:B 0.000261001
52 *1705:B *1700:B 0.000185643
53 *1706:A2 *1706:A3 0.000197991
54 *1708:B *450:8 5.33334e-05
55 *1708:B *450:12 1.74352e-05
56 *1710:B *1710:C 0
57 *1711:A2 *450:226 0
58 *1712:B *1700:B 0.000606983
59 *1715:B *1776:C 1.17968e-05
60 *1717:B *450:161 2.51343e-06
61 *1758:B *1758:C 0.000353079
62 *1758:D *1758:C 0.000135923
63 *1767:A_N *1767:B 9.90431e-05
64 *1767:A_N *450:131 1.08359e-05
65 *1786:S *450:131 0.00017309
66 *1794:B *1794:C 0.000390994
67 *1794:B *450:161 8.36572e-05
68 *1794:D *1794:C 2.14757e-05
69 *1804:B *1804:C 1.04232e-05
70 *1804:B *450:39 2.89114e-05
71 *1804:B *450:50 0.000226078
72 *1813:D *1758:C 0.000137983
73 *1813:D *450:131 2.8266e-06
74 *1813:D *450:140 1.37292e-05
75 *1813:D *450:196 4.47162e-05
76 *1832:A_N *1832:B 4.27438e-05
77 *1850:A *1703:A2 5.71022e-06
78 *1850:B *1703:A2 5.33334e-05
79 *1850:D *450:50 3.32731e-05
80 *1850:D *450:61 9.60939e-05
81 *1859:B_N *450:14 0.000309266
82 *1885:D *1885:C 2.89114e-05
83 *2000:CLK *450:226 1.69115e-05
84 *2000:RESET_B *1706:A3 0.000145771
85 *165:21 *450:226 0
86 *232:10 *1776:C 5.24274e-05
87 *261:8 *1749:B 5.52302e-05
88 *261:14 *450:131 5.44074e-05
89 *262:67 *1749:B 2.89114e-05
90 *265:26 *1767:B 2.0307e-05
91 *265:101 *1776:C 6.19181e-05
92 *266:19 *450:131 2.48938e-05
93 *266:19 *450:140 5.58941e-05
94 *266:19 *450:196 0.000334854
95 *268:12 *1885:C 0.000312215
96 *268:12 *450:18 3.34295e-05
97 *268:12 *450:96 0.000103267
98 *268:27 *450:14 0.000137983
99 *272:14 *1868:B 0.000128154
100 *272:14 *450:61 5.66157e-05
101 *273:8 *1841:C 0.000103275
102 *275:111 *1841:C 0.000268409
103 *275:111 *450:39 0.000125547
104 *275:111 *450:50 0.000547025
105 *275:111 *450:61 1.5424e-05
106 *276:16 *450:14 2.28598e-05
107 *277:86 *1868:B 0.000119618
108 *277:86 *450:61 5.83304e-05
109 *278:12 *1885:C 0.000139913
110 *278:12 *450:18 0.0002617
111 *278:12 *450:22 0.00010326
112 *278:12 *450:96 0.000119618
113 *278:12 *450:107 2.31791e-05
114 *278:22 *1841:C 7.84357e-05
115 *278:94 *1841:C 1.39726e-05
116 *278:94 *450:39 2.42516e-05
117 *407:265 *1841:C 0
118 *408:90 *450:196 9.92896e-05
119 *408:117 *450:18 0.000158805
120 *408:117 *450:22 0.000173804
121 *408:117 *450:96 1.17968e-05
122 *408:117 *450:107 0.000122651
123 *408:117 *450:118 6.6797e-05
124 *408:117 *450:131 6.8646e-06
125 *408:117 *450:161 5.33882e-05
126 *411:43 *1703:A2 2.42662e-05
127 *411:43 *450:61 0.000183726
128 *411:64 *450:14 6.42095e-05
129 *411:70 *1885:C 6.25878e-05
130 *411:126 *1758:C 2.44318e-05
131 *411:244 *1703:A2 3.48705e-05
132 *412:123 *450:161 5.30637e-06
133 *412:125 *450:161 4.36664e-05
134 *412:158 *450:161 0.000101545
135 *412:162 *1700:B 2.89114e-05
136 *412:162 *450:161 0.00022153
137 *412:162 *450:170 7.32272e-05
138 *413:36 *450:226 5.10822e-05
139 *413:76 *1706:A3 0.000385485
140 *413:80 *1706:A3 3.39008e-05
141 *416:180 *1767:B 0.000180501
142 *423:29 *1700:B 1.21289e-05
*RES
1 *2116:X *450:8 11.9071 
2 *450:8 *450:12 5.89286 
3 *450:12 *450:14 7.10714 
4 *450:14 *450:16 4.5 
5 *450:16 *450:18 3.46429 
6 *450:18 *450:22 6.75 
7 *450:22 *1841:C 23.9786 
8 *450:22 *450:39 1.35714 
9 *450:39 *1804:C 9.72857 
10 *450:39 *450:50 5.89286 
11 *450:50 *1850:C 9.3 
12 *450:50 *450:61 7.41071 
13 *450:61 *1703:A2 18.0946 
14 *450:61 *1868:B 15.4429 
15 *450:18 *1832:B 14.7643 
16 *450:16 *450:96 1.64286 
17 *450:96 *1885:C 17.2107 
18 *450:96 *450:107 3.16071 
19 *450:107 *1749:B 14.3357 
20 *450:107 *450:118 1.94643 
21 *450:118 *1767:B 15.9964 
22 *450:118 *450:131 3.16071 
23 *450:131 *1785:C 13.8 
24 *450:131 *450:140 0.732143 
25 *450:140 *450:142 4.5 
26 *450:142 *1794:C 13.9607 
27 *450:142 *450:161 17.1607 
28 *450:161 *1710:C 9.72857 
29 *450:161 *450:170 1.35714 
30 *450:170 *1776:C 19.9429 
31 *450:170 *1700:B 16.9607 
32 *450:140 *450:196 8.875 
33 *450:196 *1758:C 13.1214 
34 *450:196 *1813:C 9.3 
35 *450:14 *1859:C 9.3 
36 *450:12 *1823:C 9.3 
37 *450:8 *450:226 14.0179 
38 *450:226 *1706:A3 30.175 
39 *450:226 *1711:A4 9.3 
*END

*D_NET *451 0.0304019
*CONN
*I *1833:A0 I *D sky130_fd_sc_hd__mux2_1
*I *1795:A1 I *D sky130_fd_sc_hd__mux2_1
*I *1759:A1 I *D sky130_fd_sc_hd__mux2_1
*I *1777:A1 I *D sky130_fd_sc_hd__mux2_1
*I *1768:A0 I *D sky130_fd_sc_hd__mux2_1
*I *1877:A0 I *D sky130_fd_sc_hd__mux2_1
*I *1814:A1 I *D sky130_fd_sc_hd__mux2_1
*I *1786:A0 I *D sky130_fd_sc_hd__mux2_1
*I *1750:A0 I *D sky130_fd_sc_hd__mux2_1
*I *1860:A1 I *D sky130_fd_sc_hd__mux2_1
*I *1842:A1 I *D sky130_fd_sc_hd__mux2_1
*I *1805:A0 I *D sky130_fd_sc_hd__mux2_1
*I *1869:A0 I *D sky130_fd_sc_hd__mux2_1
*I *1851:A0 I *D sky130_fd_sc_hd__mux2_1
*I *1824:A1 I *D sky130_fd_sc_hd__mux2_1
*I *1886:A1 I *D sky130_fd_sc_hd__mux2_1
*I *2109:X O *D sky130_fd_sc_hd__clkbuf_4
*CAP
1 *1833:A0 0
2 *1795:A1 0.000654212
3 *1759:A1 0.000158629
4 *1777:A1 0
5 *1768:A0 3.98021e-05
6 *1877:A0 5.05023e-05
7 *1814:A1 3.09404e-05
8 *1786:A0 0
9 *1750:A0 0.000151962
10 *1860:A1 0.000180822
11 *1842:A1 4.63385e-05
12 *1805:A0 0
13 *1869:A0 0.000137299
14 *1851:A0 0.00010375
15 *1824:A1 0.0006299
16 *1886:A1 0
17 *2109:X 5.88338e-05
18 *451:177 0.00100773
19 *451:169 0.00118415
20 *451:158 0.00043839
21 *451:143 0.000454238
22 *451:141 0.00117968
23 *451:119 0.000245459
24 *451:115 0.001524
25 *451:101 0.0012281
26 *451:86 0.000572499
27 *451:75 0.00028864
28 *451:66 0.000274774
29 *451:55 0.00038048
30 *451:44 0.000272728
31 *451:29 0.00084014
32 *451:18 0.00320465
33 *451:10 0.00317312
34 *451:10 *456:16 5.80706e-06
35 *451:101 *452:89 0.00021023
36 *451:115 *452:79 0.000148903
37 *451:115 *452:81 0.000435505
38 *451:115 *452:83 8.15095e-05
39 *451:115 *452:89 0.000302942
40 *1643:S *1860:A1 0.000181752
41 *1716:A0 *451:141 0.000140543
42 *1716:A1 *1750:A0 0.000115474
43 *1716:A3 *451:141 0.000123762
44 *1716:S0 *451:141 0.000106403
45 *1720:A2 *1824:A1 1.32552e-05
46 *1720:S0 *451:44 1.94945e-05
47 *1721:A2 *1842:A1 9.41642e-05
48 *1721:A3 *451:75 0.00022287
49 *1721:A3 *451:86 0.000148189
50 *1759:A0 *1759:A1 0.00014285
51 *1777:A0 *1768:A0 8.00806e-05
52 *1786:A1 *451:115 1.69961e-05
53 *1786:A1 *451:119 2.89114e-05
54 *1786:A1 *451:141 2.26424e-05
55 *1786:S *451:115 0.000306317
56 *1804:A *451:115 6.76178e-05
57 *1814:A0 *451:141 7.6176e-05
58 *1814:A0 *451:143 6.84568e-05
59 *1841:D *451:115 0.000150632
60 *1842:S *451:75 5.83233e-05
61 *1842:S *451:86 0.000545151
62 *1842:S *451:101 0.000237521
63 *1851:A1 *1851:A0 0.000137983
64 *1886:A0 *451:29 0.000258447
65 *1886:A0 *451:44 0.00013059
66 *1930:D *1759:A1 7.83659e-05
67 *1930:D *451:158 0.000360816
68 *1930:D *451:169 0.000128868
69 *1938:CLK *451:177 0.000118639
70 *1938:D *451:177 2.32517e-05
71 *1954:D *1750:A0 1.58163e-05
72 *2019:D *1824:A1 1.76204e-05
73 *2044:D *1869:A0 2.59355e-05
74 *2052:D *451:158 3.57163e-05
75 *2060:CLK *1824:A1 4.58194e-05
76 *2082:A *451:86 2.28159e-05
77 *2091:A *1795:A1 0.000111448
78 *2109:A *451:10 2.56601e-05
79 *231:24 *451:177 1.65169e-05
80 *231:30 *451:177 0.000138249
81 *231:45 *1877:A0 1.07719e-05
82 *231:45 *451:177 0.00018372
83 *239:12 *451:86 0.000342488
84 *239:12 *451:101 0.000246064
85 *246:10 *1768:A0 4.23086e-05
86 *261:14 *451:115 0.000196269
87 *263:95 *1759:A1 0
88 *263:95 *451:158 0
89 *263:95 *451:169 0
90 *263:110 *1759:A1 0
91 *265:26 *451:115 0.000306317
92 *265:26 *451:141 7.83587e-05
93 *265:101 *1768:A0 0.000153047
94 *269:8 *451:115 0.000282321
95 *270:30 *1814:A1 2.89016e-05
96 *272:35 *451:29 2.65105e-05
97 *273:8 *451:115 0.000135559
98 *274:10 *451:115 0.000631454
99 *274:20 *451:115 0.000176226
100 *275:34 *451:66 0
101 *277:102 *1869:A0 0.00022459
102 *277:102 *451:18 0
103 *277:102 *451:29 1.08359e-05
104 *277:102 *451:44 9.16166e-05
105 *277:102 *451:55 6.5185e-05
106 *277:102 *451:66 1.76135e-05
107 *278:12 *451:115 0.000509472
108 *278:102 *451:18 1.52978e-05
109 *278:102 *451:29 0.000105345
110 *278:102 *451:44 0.000150896
111 *278:102 *451:55 6.30292e-05
112 *278:102 *451:66 0.00020933
113 *278:102 *451:75 9.39578e-05
114 *278:110 *451:29 5.52302e-05
115 *351:10 *1824:A1 5.70551e-05
116 *399:10 *1750:A0 1.02504e-05
117 *407:265 *451:141 0.000288564
118 *408:117 *451:115 2.68445e-05
119 *408:146 *451:66 0
120 *408:146 *451:75 0
121 *408:148 *1869:A0 2.95726e-05
122 *411:76 *451:115 7.58571e-05
123 *411:94 *451:115 6.95299e-05
124 *411:111 *451:115 1.00375e-05
125 *416:92 *1750:A0 0.000227532
126 *416:92 *451:119 1.02821e-05
127 *416:96 *1795:A1 6.2589e-06
128 *416:96 *451:141 0
129 *416:96 *451:143 0
130 *416:105 *451:143 0
131 *416:105 *451:158 0
132 *416:120 *1759:A1 0
133 *422:18 *451:143 0
134 *422:18 *451:158 0
135 *422:26 *1795:A1 0.000186498
136 *430:14 *1824:A1 0.000284208
137 *430:16 *1824:A1 1.98839e-05
138 *447:12 *451:141 3.52562e-05
139 *450:22 *451:115 3.90513e-05
140 *450:107 *451:115 0.00011062
141 *450:118 *451:115 7.15687e-05
142 *450:131 *451:115 3.34687e-05
*RES
1 *2109:X *451:10 19.3357 
2 *451:10 *451:18 46.6607 
3 *451:18 *1886:A1 9.3 
4 *451:18 *451:29 7.60714 
5 *451:29 *1824:A1 23.925 
6 *451:29 *451:44 4.07143 
7 *451:44 *1851:A0 15.1571 
8 *451:44 *451:55 1.64286 
9 *451:55 *1869:A0 16.8 
10 *451:55 *451:66 4.98214 
11 *451:66 *1805:A0 13.8 
12 *451:66 *451:75 3.16071 
13 *451:75 *1842:A1 14.7464 
14 *451:75 *451:86 7.10714 
15 *451:86 *1860:A1 17.2107 
16 *451:86 *451:101 9.83929 
17 *451:101 *451:115 41.7857 
18 *451:115 *451:119 1.67857 
19 *451:119 *1750:A0 22.1214 
20 *451:119 *1786:A0 9.3 
21 *451:115 *451:141 14.7946 
22 *451:141 *451:143 2.09821 
23 *451:143 *1814:A1 14.3357 
24 *451:143 *451:158 6.85714 
25 *451:158 *1877:A0 14.3357 
26 *451:158 *451:169 1.64286 
27 *451:169 *451:177 16.5714 
28 *451:177 *1768:A0 20.2464 
29 *451:177 *1777:A1 9.3 
30 *451:169 *1759:A1 17.2107 
31 *451:141 *1795:A1 22.8625 
32 *451:101 *1833:A0 9.3 
*END

*D_NET *452 0.0309779
*CONN
*I *1751:A0 I *D sky130_fd_sc_hd__mux2_1
*I *1815:A1 I *D sky130_fd_sc_hd__mux2_1
*I *1787:A0 I *D sky130_fd_sc_hd__mux2_1
*I *1778:A1 I *D sky130_fd_sc_hd__mux2_1
*I *1769:A0 I *D sky130_fd_sc_hd__mux2_1
*I *1878:A0 I *D sky130_fd_sc_hd__mux2_1
*I *1760:A1 I *D sky130_fd_sc_hd__mux2_1
*I *1796:A1 I *D sky130_fd_sc_hd__mux2_1
*I *1806:A0 I *D sky130_fd_sc_hd__mux2_1
*I *1861:A1 I *D sky130_fd_sc_hd__mux2_1
*I *1843:A1 I *D sky130_fd_sc_hd__mux2_1
*I *1852:A0 I *D sky130_fd_sc_hd__mux2_1
*I *1887:A1 I *D sky130_fd_sc_hd__mux2_1
*I *1834:A0 I *D sky130_fd_sc_hd__mux2_1
*I *1825:A1 I *D sky130_fd_sc_hd__mux2_1
*I *1870:A0 I *D sky130_fd_sc_hd__mux2_1
*I *2110:X O *D sky130_fd_sc_hd__clkbuf_4
*CAP
1 *1751:A0 2.52229e-05
2 *1815:A1 0.000362337
3 *1787:A0 2.04425e-05
4 *1778:A1 0.000106962
5 *1769:A0 6.08569e-05
6 *1878:A0 0
7 *1760:A1 0
8 *1796:A1 0.000474417
9 *1806:A0 0.000648618
10 *1861:A1 2.88294e-05
11 *1843:A1 0.000261838
12 *1852:A0 0.000119842
13 *1887:A1 0
14 *1834:A0 6.94748e-05
15 *1825:A1 0
16 *1870:A0 0.000241812
17 *2110:X 0.000992913
18 *452:191 0.00038278
19 *452:150 0.000736304
20 *452:134 0.000633759
21 *452:89 0.000457841
22 *452:83 0.000621955
23 *452:81 0.000175655
24 *452:79 0.00082169
25 *452:68 0.000197802
26 *452:46 0.000715199
27 *452:32 0.00206123
28 *452:22 0.00198136
29 *452:20 0.000375134
30 *452:16 0.000635034
31 *452:14 0.000568622
32 *452:10 0.00127136
33 *1796:A1 *1780:A1 0
34 *1622:A *1796:A1 0
35 *1623:A *1796:A1 2.84494e-05
36 *1717:B *452:32 0.000197009
37 *1719:A2 *452:32 0.000383288
38 *1724:A0 *1778:A1 0.000396898
39 *1724:A1 *1796:A1 2.8266e-06
40 *1724:A1 *452:150 5.33005e-05
41 *1724:A2 *452:20 2.94103e-05
42 *1724:A2 *452:150 0.000150092
43 *1726:A1 *452:10 0
44 *1726:A3 *452:14 0.000125724
45 *1726:S0 *1778:A1 0.000140933
46 *1726:S0 *452:14 0.000106542
47 *1726:S0 *452:16 0.000260962
48 *1726:S0 *452:20 8.11028e-06
49 *1729:A2 *1806:A0 6.98553e-06
50 *1729:A2 *1843:A1 0.000276211
51 *1729:A3 *1806:A0 0.000700563
52 *1729:S1 *1806:A0 6.05161e-06
53 *1746:S *452:32 7.83659e-05
54 *1751:A1 *1751:A0 5.52238e-05
55 *1762:S *1796:A1 0.000402346
56 *1769:A1 *1769:A0 5.68722e-05
57 *1769:S *1769:A0 5.52238e-05
58 *1769:S *452:32 0.000167833
59 *1778:S *1778:A1 9.60939e-05
60 *1787:S *1787:A0 5.33005e-05
61 *1787:S *1815:A1 4.27935e-05
62 *1806:S *1806:A0 1.40034e-05
63 *1815:S *1815:A1 0.000147167
64 *1833:S *1834:A0 9.41642e-05
65 *1833:S *452:46 0.000112418
66 *1833:S *452:68 0.000245182
67 *1834:A1 *1834:A0 5.71472e-05
68 *1834:S *1834:A0 5.52238e-05
69 *1841:D *452:32 3.92854e-05
70 *1843:S *1861:A1 9.41642e-05
71 *1852:S *1852:A0 6.05161e-06
72 *1861:A0 *1843:A1 4.58976e-05
73 *1861:A0 *1861:A1 5.33005e-05
74 *1870:S *1870:A0 0.000146533
75 *1878:A1 *452:20 4.29086e-05
76 *1878:A1 *452:22 0
77 *1878:A1 *452:134 0.000112504
78 *1887:A0 *1852:A0 0.000305285
79 *1887:A0 *452:89 5.71472e-05
80 *1887:S *1852:A0 2.14658e-05
81 *1887:S *452:89 0.000220016
82 *1895:D *452:10 0
83 *1913:CLK *452:14 0
84 *1931:D *452:150 0
85 *1949:CLK *1796:A1 0
86 *2045:CLK *1870:A0 0
87 *2061:D *452:89 5.52238e-05
88 *2078:A *452:150 0.000123574
89 *2120:A *452:10 7.15846e-05
90 *2123:A *452:10 5.33433e-05
91 *2125:A *452:10 8.90314e-05
92 *2126:A *452:10 0
93 *2126:A *452:14 0
94 *164:18 *1796:A1 0
95 *239:12 *452:32 0.000124717
96 *262:28 *452:16 0.000182839
97 *262:28 *452:32 0.00027878
98 *263:110 *1796:A1 0
99 *263:110 *452:150 5.52302e-05
100 *264:8 *452:32 4.66203e-05
101 *264:102 *452:32 0.000151968
102 *268:27 *452:32 0.000126481
103 *268:38 *452:32 8.66324e-05
104 *269:8 *452:79 0.000139653
105 *269:8 *452:81 0.000131297
106 *269:12 *452:81 0.0003042
107 *269:12 *452:83 6.98302e-05
108 *269:12 *452:89 0.000103253
109 *269:61 *1806:A0 5.11043e-06
110 *269:77 *1806:A0 1.32552e-05
111 *270:91 *452:150 0.000437934
112 *272:14 *452:46 9.71197e-05
113 *272:25 *452:46 9.71197e-05
114 *274:20 *452:89 0.000110843
115 *275:16 *1870:A0 0.000117378
116 *275:34 *1852:A0 0.000142896
117 *276:16 *452:32 3.87848e-05
118 *278:94 *452:32 0.000382923
119 *278:94 *452:46 5.58941e-05
120 *278:94 *452:89 0.000139913
121 *296:6 *1787:A0 2.59355e-05
122 *296:6 *1815:A1 6.05161e-06
123 *328:10 *452:20 4.84667e-05
124 *352:10 *1870:A0 2.89114e-05
125 *400:10 *452:10 0
126 *407:12 *1769:A0 1.69961e-05
127 *407:51 *452:150 0.000224608
128 *407:234 *452:22 0.000103032
129 *407:234 *452:32 0.000274375
130 *408:30 *452:14 2.47093e-05
131 *408:45 *452:14 2.04866e-05
132 *408:45 *452:16 7.6644e-05
133 *408:49 *452:16 0.000678945
134 *408:49 *452:20 5.33072e-05
135 *408:70 *452:20 6.98794e-05
136 *408:80 *452:20 0.000103041
137 *408:80 *452:22 0.00027095
138 *408:80 *452:32 0.000151333
139 *408:117 *452:32 0
140 *409:52 *452:20 0
141 *409:63 *452:32 0.00123941
142 *409:148 *1796:A1 0
143 *412:158 *452:32 0.000223599
144 *412:182 *452:32 0.000175526
145 *416:120 *452:150 0.000116007
146 *425:75 *1796:A1 0
147 *431:6 *452:46 0.000344574
148 *431:8 *452:46 0.000107943
149 *431:12 *1834:A0 0.00026839
150 *431:12 *452:68 0.000257619
151 *431:70 *452:46 0.000254049
152 *451:101 *452:89 0.00021023
153 *451:115 *452:79 0.000148903
154 *451:115 *452:81 0.000435505
155 *451:115 *452:83 8.15095e-05
156 *451:115 *452:89 0.000302942
*RES
1 *2110:X *452:10 27.4429 
2 *452:10 *452:14 5.51786 
3 *452:14 *452:16 9.83929 
4 *452:16 *452:20 5.51786 
5 *452:20 *452:22 3.46429 
6 *452:22 *452:32 42.2321 
7 *452:32 *452:46 15.5 
8 *452:46 *1870:A0 23.7464 
9 *452:46 *1825:A1 9.3 
10 *452:32 *452:68 7.08929 
11 *452:68 *1834:A0 11.8893 
12 *452:68 *452:79 6.44643 
13 *452:79 *452:81 5.58929 
14 *452:81 *452:83 1.03571 
15 *452:83 *452:89 13.7679 
16 *452:89 *1887:A1 9.3 
17 *452:89 *1852:A0 12.7107 
18 *452:83 *1843:A1 17.6214 
19 *452:81 *1861:A1 14.7464 
20 *452:79 *1806:A0 23.175 
21 *452:22 *452:134 8.73214 
22 *452:134 *452:150 19.1071 
23 *452:150 *1796:A1 27.5321 
24 *452:150 *1760:A1 9.3 
25 *452:134 *1878:A0 9.3 
26 *452:20 *1769:A0 15.1571 
27 *452:16 *1778:A1 17.6214 
28 *452:14 *452:191 4.5 
29 *452:191 *1787:A0 9.83571 
30 *452:191 *1815:A1 14.8 
31 *452:10 *1751:A0 14.3357 
*END

*D_NET *453 0.0236377
*CONN
*I *1853:A0 I *D sky130_fd_sc_hd__mux2_1
*I *1835:A0 I *D sky130_fd_sc_hd__mux2_1
*I *1816:A1 I *D sky130_fd_sc_hd__mux2_1
*I *1779:A1 I *D sky130_fd_sc_hd__mux2_1
*I *1752:A0 I *D sky130_fd_sc_hd__mux2_1
*I *1797:A1 I *D sky130_fd_sc_hd__mux2_1
*I *1788:A0 I *D sky130_fd_sc_hd__mux2_1
*I *1761:A1 I *D sky130_fd_sc_hd__mux2_1
*I *1770:A0 I *D sky130_fd_sc_hd__mux2_1
*I *1879:A0 I *D sky130_fd_sc_hd__mux2_1
*I *1862:A1 I *D sky130_fd_sc_hd__mux2_1
*I *1844:A1 I *D sky130_fd_sc_hd__mux2_1
*I *1807:A0 I *D sky130_fd_sc_hd__mux2_1
*I *1888:A1 I *D sky130_fd_sc_hd__mux2_1
*I *1871:A0 I *D sky130_fd_sc_hd__mux2_1
*I *1826:A1 I *D sky130_fd_sc_hd__mux2_1
*I *2111:X O *D sky130_fd_sc_hd__clkbuf_4
*CAP
1 *1853:A0 0.000158441
2 *1835:A0 0
3 *1816:A1 0
4 *1779:A1 0.000281968
5 *1752:A0 0
6 *1797:A1 0
7 *1788:A0 0.000324405
8 *1761:A1 0
9 *1770:A0 0.000545067
10 *1879:A0 3.92359e-05
11 *1862:A1 0
12 *1844:A1 0.000225408
13 *1807:A0 8.22195e-05
14 *1888:A1 0
15 *1871:A0 0.000349622
16 *1826:A1 0.000345808
17 *2111:X 9.4409e-05
18 *453:164 0.000590621
19 *453:133 0.000649278
20 *453:131 0.000611913
21 *453:125 0.000716568
22 *453:116 0.000238821
23 *453:92 0.000584303
24 *453:90 0.00178665
25 *453:79 0.00198673
26 *453:70 0.000866065
27 *453:57 0.000556485
28 *453:51 0.000288888
29 *453:33 0.000527179
30 *453:29 0.000414535
31 *453:25 0.000755563
32 *453:8 0.000937617
33 *1770:A0 *457:31 0
34 *1826:A1 *455:14 0.000117335
35 *1826:A1 *456:16 0.00113622
36 *453:8 *456:16 0.000141729
37 *453:90 *1866:A1 0
38 *453:90 *457:31 0
39 *453:90 *457:33 0
40 *453:90 *457:39 0
41 *453:90 *457:52 0
42 *453:116 *457:31 0
43 *453:125 *457:31 0
44 *453:164 *457:31 0
45 *1737:S0 *453:70 0.000143297
46 *1737:S1 *453:90 0.000692354
47 *1739:A1 *1779:A1 1.56e-05
48 *1752:S *453:131 0.000486752
49 *1752:S *453:133 4.73286e-05
50 *1770:A1 *1770:A0 0.000354139
51 *1779:A0 *1779:A1 0.000241294
52 *1779:S *1779:A1 1.97695e-05
53 *1788:S *1788:A0 3.69047e-06
54 *1791:S *1788:A0 0.000115789
55 *1797:A0 *1788:A0 0.000271951
56 *1816:S *1779:A1 1.04232e-05
57 *1819:S *453:116 2.8266e-06
58 *1819:S *453:125 6.44449e-05
59 *1819:S *453:164 0.000124284
60 *1826:A0 *1826:A1 5.71472e-05
61 *1835:A1 *453:57 0.000488281
62 *1835:A1 *453:70 0.000207047
63 *1835:S *453:51 9.69119e-06
64 *1835:S *453:90 7.4826e-05
65 *1839:S *453:90 0.00049228
66 *1844:A0 *1844:A1 0.00016493
67 *1844:A0 *453:79 0.000138217
68 *1862:A0 *453:79 2.59355e-05
69 *1862:A0 *453:90 2.28598e-05
70 *1866:S *453:90 0
71 *1879:A1 *1770:A0 0.0004293
72 *1879:A1 *1879:A0 5.52238e-05
73 *1879:S *1770:A0 4.02462e-05
74 *1888:A0 *1871:A0 2.89016e-05
75 *1888:A0 *453:33 1.74352e-05
76 *1888:S *453:51 0
77 *1888:S *453:90 0
78 *1956:D *1788:A0 0.000184635
79 *1964:D *1788:A0 4.29179e-05
80 *2021:D *453:25 8.54803e-05
81 *2025:D *453:90 0.000125649
82 *2054:D *453:90 0.000154762
83 *2062:D *453:29 3.92854e-05
84 *2066:CLK *453:90 8.27217e-05
85 *2086:A *453:131 0.000300075
86 *2113:A *1826:A1 0.000146591
87 *16:31 *1770:A0 0.000398809
88 *269:141 *1807:A0 5.33005e-05
89 *269:141 *453:70 0.000241159
90 *270:30 *1779:A1 7.48301e-06
91 *270:34 *1779:A1 2.44318e-05
92 *270:34 *453:164 0.000440711
93 *274:55 *453:79 3.22663e-05
94 *274:55 *453:90 1.32552e-05
95 *278:41 *453:90 0
96 *305:8 *1770:A0 4.46186e-06
97 *369:10 *453:70 0.00012401
98 *377:10 *453:51 5.41794e-05
99 *408:431 *1779:A1 0.000143896
100 *408:431 *453:164 0.000371938
101 *416:66 *1770:A0 0
102 *419:14 *453:57 0.000311121
103 *427:10 *453:90 0
104 *427:21 *453:90 0
105 *427:43 *453:90 0
106 *433:8 *453:131 5.52302e-05
107 *433:10 *453:90 0
108 *433:10 *453:116 0
109 *433:14 *453:90 0
*RES
1 *2111:X *453:8 15.1571 
2 *453:8 *1826:A1 25.7464 
3 *453:8 *453:25 12.8571 
4 *453:25 *453:29 6.44643 
5 *453:29 *453:33 7.5 
6 *453:33 *1871:A0 15.1929 
7 *453:33 *1888:A1 9.3 
8 *453:29 *453:51 7.05357 
9 *453:51 *453:57 9.75 
10 *453:57 *1807:A0 15.1571 
11 *453:57 *453:70 12.8214 
12 *453:70 *1844:A1 12.3 
13 *453:70 *453:79 4.23214 
14 *453:79 *1862:A1 9.3 
15 *453:79 *453:90 39.5714 
16 *453:90 *453:92 4.5 
17 *453:92 *1879:A0 9.83571 
18 *453:92 *1770:A0 29.8179 
19 *453:90 *453:116 1.94643 
20 *453:116 *1761:A1 13.8 
21 *453:116 *453:125 2.55357 
22 *453:125 *453:131 12.4464 
23 *453:131 *453:133 5.05357 
24 *453:133 *1788:A0 26.3893 
25 *453:133 *1797:A1 9.3 
26 *453:131 *1752:A0 9.3 
27 *453:125 *453:164 13.4107 
28 *453:164 *1779:A1 15.6214 
29 *453:164 *1816:A1 9.3 
30 *453:51 *1835:A0 9.3 
31 *453:25 *1853:A0 11.0679 
*END

*D_NET *454 0.0251057
*CONN
*I *1753:A0 I *D sky130_fd_sc_hd__mux2_1
*I *1789:A0 I *D sky130_fd_sc_hd__mux2_1
*I *1817:A1 I *D sky130_fd_sc_hd__mux2_1
*I *1798:A1 I *D sky130_fd_sc_hd__mux2_1
*I *1762:A1 I *D sky130_fd_sc_hd__mux2_1
*I *1771:A0 I *D sky130_fd_sc_hd__mux2_1
*I *1780:A1 I *D sky130_fd_sc_hd__mux2_1
*I *1880:A0 I *D sky130_fd_sc_hd__mux2_1
*I *1854:A0 I *D sky130_fd_sc_hd__mux2_1
*I *1827:A1 I *D sky130_fd_sc_hd__mux2_1
*I *1872:A0 I *D sky130_fd_sc_hd__mux2_1
*I *1808:A0 I *D sky130_fd_sc_hd__mux2_1
*I *1836:A0 I *D sky130_fd_sc_hd__mux2_1
*I *1863:A1 I *D sky130_fd_sc_hd__mux2_1
*I *1845:A1 I *D sky130_fd_sc_hd__mux2_1
*I *1889:A1 I *D sky130_fd_sc_hd__mux2_1
*I *2112:X O *D sky130_fd_sc_hd__clkbuf_4
*CAP
1 *1753:A0 4.65883e-05
2 *1789:A0 0.000364031
3 *1817:A1 0.000166077
4 *1798:A1 0.000280709
5 *1762:A1 2.69998e-06
6 *1771:A0 0
7 *1780:A1 0.00051077
8 *1880:A0 2.63445e-05
9 *1854:A0 8.56257e-05
10 *1827:A1 0.000690912
11 *1872:A0 0
12 *1808:A0 0
13 *1836:A0 4.58822e-05
14 *1863:A1 0
15 *1845:A1 0.00047487
16 *1889:A1 0
17 *2112:X 0.000633662
18 *454:129 0.000987078
19 *454:89 0.000930085
20 *454:53 0.000664725
21 *454:49 0.000424534
22 *454:41 0.000596833
23 *454:34 0.00050119
24 *454:28 0.00162819
25 *454:26 0.00132808
26 *454:22 0.000731054
27 *454:20 0.000362592
28 *454:16 0.000599223
29 *454:14 0.000352049
30 *454:12 0.000609042
31 *454:10 0.000861162
32 *1845:A1 *456:84 0
33 *454:28 *455:102 0.000895867
34 *454:28 *455:145 0.000303541
35 *454:28 *455:160 0.000207287
36 *454:34 *455:102 0.000677543
37 *454:49 *456:84 0.00010326
38 *1639:A3 *454:28 0
39 *1644:B1 *1845:A1 0.000178111
40 *1644:B1 *454:53 0.000171334
41 *1647:S0 *1789:A0 0.000354627
42 *1740:A1 *454:12 0
43 *1740:A2 *1817:A1 7.77751e-05
44 *1740:A2 *454:12 2.19778e-05
45 *1740:A2 *454:14 2.34204e-05
46 *1740:A3 *454:12 0.00012401
47 *1740:S0 *1789:A0 1.21258e-05
48 *1742:A3 *1780:A1 4.87953e-05
49 *1745:S0 *454:53 5.41794e-05
50 *1756:S *1753:A0 9.90431e-05
51 *1762:A0 *1762:A1 1.24469e-05
52 *1762:A0 *454:22 6.5919e-05
53 *1763:S *454:28 0.000734132
54 *1773:A1 *454:28 5.07157e-05
55 *1780:S *1780:A1 1.28585e-05
56 *1796:A1 *1780:A1 0
57 *1808:A1 *454:89 0.000265447
58 *1817:A0 *1817:A1 0.000487596
59 *1836:A1 *1836:A0 1.21258e-05
60 *1836:A1 *454:49 6.28241e-05
61 *1836:A1 *454:53 0
62 *1845:A0 *1845:A1 0.000188586
63 *1845:S *1845:A1 7.77652e-05
64 *1854:A1 *454:34 0
65 *1854:S *454:34 0
66 *1872:A1 *1827:A1 0.000106467
67 *1872:A1 *454:89 1.58163e-05
68 *1872:S *454:89 1.38238e-05
69 *1880:S *454:28 0.000202825
70 *1881:A1 *454:28 0.000125731
71 *1889:A0 *454:34 0.000244015
72 *1897:CLK *454:10 0
73 *1897:CLK *454:12 0
74 *1897:CLK *454:14 0
75 *1897:D *454:10 5.33882e-05
76 *1916:D *1780:A1 5.05058e-05
77 *1931:D *1780:A1 0.000526443
78 *1963:CLK *1817:A1 0.000147928
79 *1981:D *1817:A1 9.64791e-05
80 *2006:D *454:53 8.45386e-05
81 *163:73 *1780:A1 0.000277897
82 *163:73 *454:129 0.000695773
83 *164:18 *1780:A1 5.09964e-05
84 *164:34 *1880:A0 5.33005e-05
85 *164:34 *454:20 1.50087e-05
86 *164:34 *454:22 0.000155373
87 *164:34 *454:26 5.33978e-05
88 *176:12 *454:28 0
89 *176:12 *454:34 0
90 *231:51 *454:28 0.000167031
91 *263:110 *1780:A1 3.34366e-05
92 *264:26 *454:28 0
93 *264:68 *1780:A1 3.67364e-05
94 *267:30 *454:28 6.42242e-05
95 *267:73 *1798:A1 0.00013071
96 *267:87 *1798:A1 2.27416e-05
97 *269:77 *454:49 3.34672e-05
98 *269:77 *454:53 0.000103974
99 *269:103 *454:34 5.92418e-05
100 *269:103 *454:41 0.000356022
101 *269:103 *454:89 0.000140933
102 *272:84 *454:89 5.72984e-05
103 *274:20 *1845:A1 0.00021528
104 *275:111 *454:34 0
105 *277:18 *454:89 2.87555e-06
106 *277:30 *454:89 1.2823e-05
107 *362:10 *1845:A1 0
108 *362:10 *454:53 0
109 *402:10 *454:10 0
110 *407:51 *1780:A1 0.000120111
111 *407:167 *454:12 7.22594e-05
112 *407:167 *454:14 0.000115467
113 *407:167 *454:16 0.000260993
114 *407:167 *454:20 0.00032737
115 *408:239 *454:53 0.000128154
116 *409:160 *454:16 4.46186e-06
117 *409:160 *454:20 0.000209419
118 *409:160 *454:22 0.000122324
119 *409:160 *454:26 4.03318e-05
120 *409:160 *454:28 0
121 *409:255 *454:16 4.98872e-05
122 *410:57 *454:28 0
123 *416:138 *1780:A1 2.11372e-05
124 *424:71 *454:16 0
125 *431:23 *1827:A1 0
126 *431:34 *1827:A1 0
*RES
1 *2112:X *454:10 22.6214 
2 *454:10 *454:12 3.76786 
3 *454:12 *454:14 1.64286 
4 *454:14 *454:16 3.46429 
5 *454:16 *454:20 5.66964 
6 *454:20 *454:22 4.83036 
7 *454:22 *454:26 2.17857 
8 *454:26 *454:28 33.5179 
9 *454:28 *454:34 14.0714 
10 *454:34 *1889:A1 9.3 
11 *454:34 *454:41 3.41071 
12 *454:41 *454:49 12.1071 
13 *454:49 *454:53 10.3929 
14 *454:53 *1845:A1 24.05 
15 *454:53 *1863:A1 13.8 
16 *454:49 *1836:A0 9.83571 
17 *454:41 *1808:A0 9.3 
18 *454:41 *454:89 5.19643 
19 *454:89 *1872:A0 9.3 
20 *454:89 *1827:A1 28.3357 
21 *454:28 *1854:A0 14.7464 
22 *454:26 *1880:A0 14.3357 
23 *454:22 *454:129 11.1964 
24 *454:129 *1780:A1 39.175 
25 *454:129 *1771:A0 9.3 
26 *454:20 *1762:A1 14.0768 
27 *454:16 *1798:A1 17.6214 
28 *454:14 *1817:A1 20.2286 
29 *454:12 *1789:A0 18.8536 
30 *454:10 *1753:A0 14.7464 
*END

*D_NET *455 0.031572
*CONN
*I *1873:A0 I *D sky130_fd_sc_hd__mux2_1
*I *1890:A1 I *D sky130_fd_sc_hd__mux2_1
*I *1754:A0 I *D sky130_fd_sc_hd__mux2_1
*I *1799:A1 I *D sky130_fd_sc_hd__mux2_1
*I *1790:A0 I *D sky130_fd_sc_hd__mux2_1
*I *1818:A1 I *D sky130_fd_sc_hd__mux2_1
*I *1881:A0 I *D sky130_fd_sc_hd__mux2_1
*I *1781:A1 I *D sky130_fd_sc_hd__mux2_1
*I *1772:A0 I *D sky130_fd_sc_hd__mux2_1
*I *1763:A1 I *D sky130_fd_sc_hd__mux2_1
*I *1837:A0 I *D sky130_fd_sc_hd__mux2_1
*I *1809:A0 I *D sky130_fd_sc_hd__mux2_1
*I *1846:A1 I *D sky130_fd_sc_hd__mux2_1
*I *1864:A1 I *D sky130_fd_sc_hd__mux2_1
*I *1828:A1 I *D sky130_fd_sc_hd__mux2_1
*I *1855:A0 I *D sky130_fd_sc_hd__mux2_1
*I *2113:X O *D sky130_fd_sc_hd__clkbuf_4
*CAP
1 *1873:A0 0.000122729
2 *1890:A1 0
3 *1754:A0 0
4 *1799:A1 0.00031399
5 *1790:A0 0.000179557
6 *1818:A1 0
7 *1881:A0 5.02952e-05
8 *1781:A1 0.000551644
9 *1772:A0 0
10 *1763:A1 0
11 *1837:A0 0
12 *1809:A0 0
13 *1846:A1 7.56823e-05
14 *1864:A1 0.000128042
15 *1828:A1 0.000390621
16 *1855:A0 0
17 *2113:X 0.000732701
18 *455:200 0.000179912
19 *455:175 0.000899817
20 *455:169 0.00069927
21 *455:160 0.00194846
22 *455:145 0.00202159
23 *455:117 0.00104311
24 *455:110 0.000548964
25 *455:104 0.000616879
26 *455:102 0.00222433
27 *455:73 0.000463773
28 *455:57 0.000448769
29 *455:55 0.00239136
30 *455:42 0.000536108
31 *455:31 0.000669396
32 *455:20 0.00054575
33 *455:14 0.00111503
34 *1873:A0 *456:18 0.000293182
35 *455:14 *456:16 5.24292e-05
36 *455:14 *456:18 9.90431e-05
37 *455:20 *456:16 5.31541e-05
38 *455:160 *1765:A1 0.000271352
39 *455:200 *456:18 0.000175251
40 *1629:S1 *1781:A1 9.25014e-06
41 *1630:B *1781:A1 0.000265447
42 *1633:A3 *455:31 6.05161e-06
43 *1634:A2 *455:55 0.00026537
44 *1634:A2 *455:73 4.08637e-05
45 *1635:S *455:102 0.000113142
46 *1636:B1 *1781:A1 0
47 *1639:A0 *455:102 0.000144587
48 *1639:A1 *455:102 3.93893e-05
49 *1736:S0 *455:20 3.88322e-05
50 *1736:S0 *455:31 9.16013e-05
51 *1736:S0 *455:42 0.000120402
52 *1736:S0 *455:55 8.2958e-06
53 *1736:S1 *455:20 8.23597e-06
54 *1738:S *455:57 2.14658e-05
55 *1738:S *455:73 0.000154765
56 *1738:S *455:102 2.89114e-05
57 *1754:S *455:169 2.28499e-05
58 *1763:A0 *455:145 0.000250193
59 *1763:S *455:102 0.000135742
60 *1763:S *455:104 0.000206042
61 *1763:S *455:145 9.44566e-05
62 *1765:S *455:160 2.44318e-05
63 *1772:A1 *455:117 4.72818e-05
64 *1781:S *1781:A1 0.000359621
65 *1783:S *455:160 0
66 *1790:A1 *1790:A0 0.000321738
67 *1809:S *455:73 1.3701e-05
68 *1818:A0 *455:169 0.000354511
69 *1818:S *455:160 0.000314037
70 *1826:A0 *455:14 7.17235e-05
71 *1826:A1 *455:14 0.000117335
72 *1826:S *455:14 5.23057e-05
73 *1826:S *455:20 0
74 *1837:A1 *455:55 0
75 *1837:A1 *455:57 5.71472e-05
76 *1837:A1 *455:73 0.000142856
77 *1845:A0 *455:102 0
78 *1846:A0 *1846:A1 0.000189335
79 *1846:A0 *455:73 1.24368e-05
80 *1855:A1 *455:31 9.7659e-05
81 *1855:S *455:20 0
82 *1864:A0 *455:55 0.000108296
83 *1882:A1 *455:102 0
84 *1882:S *455:102 0
85 *1882:S *455:104 0.000177411
86 *1882:S *455:110 5.01876e-06
87 *1882:S *455:145 0
88 *1890:A0 *455:20 0.000173597
89 *1890:S *1873:A0 0.000251754
90 *1898:D *1799:A1 0.000188743
91 *1943:D *455:104 0.000100831
92 *1958:D *1790:A0 0
93 *1958:D *455:175 0
94 *1966:D *1799:A1 9.90431e-05
95 *1973:D *455:102 0
96 *1982:D *455:160 3.69047e-06
97 *1982:D *455:169 5.74499e-06
98 *2014:D *455:102 0
99 *2022:D *455:102 0.000153054
100 *2023:D *455:20 0
101 *2040:D *455:55 0.000714097
102 *2056:D *455:145 8.16036e-05
103 *2063:D *455:102 7.8327e-05
104 *2064:D *455:20 0.000292701
105 *2113:A *455:14 0.000318101
106 *174:14 *455:55 0
107 *174:14 *455:102 0.000184745
108 *176:12 *455:102 0
109 *231:45 *1781:A1 3.06878e-06
110 *253:10 *455:73 0.00012401
111 *264:20 *1781:A1 0.00014285
112 *264:20 *455:117 0.000139913
113 *265:34 *1781:A1 0.000388132
114 *265:55 *1881:A0 5.03772e-05
115 *266:71 *455:175 3.79104e-05
116 *266:73 *1790:A0 1.00375e-05
117 *273:54 *455:73 5.96516e-05
118 *274:31 *455:102 0
119 *274:53 *1846:A1 0.000170955
120 *274:53 *455:73 1.21258e-05
121 *274:55 *1846:A1 3.18676e-05
122 *299:10 *1790:A0 2.31791e-05
123 *299:10 *455:175 0.000189561
124 *378:8 *455:102 0
125 *379:10 *455:73 3.17148e-05
126 *408:154 *1828:A1 0.000268692
127 *408:384 *1781:A1 0.000198691
128 *409:166 *455:145 0
129 *409:166 *455:160 0
130 *409:174 *455:102 0
131 *409:176 *455:102 0
132 *409:180 *455:102 0
133 *416:45 *455:73 3.28804e-05
134 *426:32 *455:31 0.000151333
135 *426:32 *455:42 0.000226021
136 *426:32 *455:55 0.000173812
137 *454:28 *455:102 0.000895867
138 *454:28 *455:145 0.000303541
139 *454:28 *455:160 0.000207287
140 *454:34 *455:102 0.000677543
*RES
1 *2113:X *455:14 21.1036 
2 *455:14 *455:20 17.625 
3 *455:20 *1855:A0 9.3 
4 *455:20 *455:31 8.625 
5 *455:31 *1828:A1 21.3179 
6 *455:31 *455:42 2.85714 
7 *455:42 *1864:A1 15.5679 
8 *455:42 *455:55 15.5536 
9 *455:55 *455:57 0.946429 
10 *455:57 *455:73 16.3929 
11 *455:73 *1846:A1 12.7107 
12 *455:73 *1809:A0 9.3 
13 *455:57 *1837:A0 9.3 
14 *455:55 *455:102 46.9375 
15 *455:102 *455:104 6.80357 
16 *455:104 *455:110 5.3125 
17 *455:110 *1763:A1 9.3 
18 *455:110 *455:117 5.875 
19 *455:117 *1772:A0 9.3 
20 *455:117 *1781:A1 30.55 
21 *455:104 *455:145 9.00893 
22 *455:145 *1881:A0 14.7464 
23 *455:145 *455:160 34.25 
24 *455:160 *1818:A1 9.3 
25 *455:160 *455:169 5.48214 
26 *455:169 *455:175 11.7857 
27 *455:175 *1790:A0 18.4786 
28 *455:175 *1799:A1 19.2643 
29 *455:169 *1754:A0 9.3 
30 *455:14 *455:200 1.76786 
31 *455:200 *1890:A1 9.3 
32 *455:200 *1873:A0 14.7821 
*END

*D_NET *456 0.0355625
*CONN
*I *1874:A0 I *D sky130_fd_sc_hd__mux2_1
*I *1829:A1 I *D sky130_fd_sc_hd__mux2_1
*I *1856:A0 I *D sky130_fd_sc_hd__mux2_1
*I *1865:A1 I *D sky130_fd_sc_hd__mux2_1
*I *1782:A1 I *D sky130_fd_sc_hd__mux2_1
*I *1882:A0 I *D sky130_fd_sc_hd__mux2_1
*I *1773:A0 I *D sky130_fd_sc_hd__mux2_1
*I *1764:A1 I *D sky130_fd_sc_hd__mux2_1
*I *1800:A1 I *D sky130_fd_sc_hd__mux2_1
*I *1791:A0 I *D sky130_fd_sc_hd__mux2_1
*I *1819:A1 I *D sky130_fd_sc_hd__mux2_1
*I *1755:A0 I *D sky130_fd_sc_hd__mux2_1
*I *1838:A0 I *D sky130_fd_sc_hd__mux2_1
*I *1847:A1 I *D sky130_fd_sc_hd__mux2_1
*I *1810:A0 I *D sky130_fd_sc_hd__mux2_1
*I *1891:A1 I *D sky130_fd_sc_hd__mux2_1
*I *2114:X O *D sky130_fd_sc_hd__clkbuf_4
*CAP
1 *1874:A0 3.51666e-05
2 *1829:A1 0.000286974
3 *1856:A0 0
4 *1865:A1 0.000315113
5 *1782:A1 0.000445761
6 *1882:A0 0
7 *1773:A0 0.000435453
8 *1764:A1 0
9 *1800:A1 0
10 *1791:A0 4.97296e-05
11 *1819:A1 0
12 *1755:A0 0.000645568
13 *1838:A0 0.00035993
14 *1847:A1 6.59684e-05
15 *1810:A0 7.00058e-05
16 *1891:A1 4.25048e-05
17 *2114:X 0.00124764
18 *456:202 0.000794292
19 *456:195 0.000677954
20 *456:134 0.000267359
21 *456:108 0.00209453
22 *456:94 0.00123134
23 *456:92 0.000692888
24 *456:86 0.000679408
25 *456:84 0.00198717
26 *456:63 0.00154727
27 *456:52 0.00025103
28 *456:41 0.000741102
29 *456:35 0.00118301
30 *456:22 0.000653157
31 *456:18 0.00154642
32 *456:16 0.00229157
33 *1633:S0 *456:41 0
34 *1637:A1 *1755:A0 4.75812e-05
35 *1637:A3 *456:134 0.000228425
36 *1637:S1 *1755:A0 1.62539e-05
37 *1639:S1 *1782:A1 0
38 *1639:S1 *456:84 0.000414742
39 *1644:B1 *1782:A1 0.000435505
40 *1644:B1 *456:84 0
41 *1744:S1 *456:84 0
42 *1745:A0 *456:84 0.000166983
43 *1755:A1 *1755:A0 0.00033032
44 *1755:S *1755:A0 4.58976e-05
45 *1761:A0 *456:108 0.00053026
46 *1764:A0 *456:108 5.33005e-05
47 *1791:A1 *1791:A0 0.000451463
48 *1791:A1 *456:134 0.000129515
49 *1791:S *1791:A0 0.000451463
50 *1791:S *456:134 5.71472e-05
51 *1800:S *456:134 5.62995e-05
52 *1809:S *1847:A1 9.90367e-05
53 *1819:A0 *456:134 0.00031155
54 *1819:S *456:108 0.000143674
55 *1826:A0 *456:16 2.95641e-05
56 *1826:A1 *456:16 0.00113622
57 *1826:S *456:16 9.7659e-05
58 *1836:A1 *456:84 0.000162807
59 *1838:S *1838:A0 0.000151123
60 *1845:A1 *456:84 0
61 *1847:A0 *456:41 0.000128154
62 *1847:A0 *456:52 0.000223599
63 *1847:S *456:52 2.22043e-05
64 *1856:A1 *456:195 2.27416e-05
65 *1856:A1 *456:202 2.27416e-05
66 *1865:A0 *1865:A1 5.71472e-05
67 *1873:A0 *456:18 0.000293182
68 *1873:A1 *456:18 0.000188586
69 *1873:S *1874:A0 1.40415e-05
70 *1873:S *456:18 0.000240631
71 *1873:S *456:195 9.82524e-05
72 *1873:S *456:202 0.00019557
73 *1874:A1 *1829:A1 0.000107787
74 *1882:S *1773:A0 0.000132081
75 *1882:S *456:86 4.72917e-05
76 *1882:S *456:92 0.000165487
77 *1890:S *456:18 9.22103e-06
78 *1890:S *456:22 0.000202842
79 *1891:A0 *1891:A1 2.27416e-05
80 *1891:S *1891:A1 5.52302e-05
81 *1891:S *456:22 0.000309066
82 *1940:D *456:108 0.000222971
83 *1951:CLK *1782:A1 5.33005e-05
84 *1975:D *456:41 0.00034321
85 *1983:D *1755:A0 0.000368096
86 *1991:D *1829:A1 3.57163e-05
87 *2049:D *1829:A1 0
88 *2064:D *456:16 9.25014e-06
89 *2065:D *456:22 0.000103343
90 *2109:A *456:16 0
91 *2111:A *456:16 3.67257e-05
92 *176:12 *456:84 0.00107126
93 *263:44 *456:108 0.000898959
94 *264:30 *1773:A0 0.000255068
95 *267:30 *456:108 2.24763e-05
96 *267:32 *456:108 2.571e-05
97 *267:32 *456:134 0.000400393
98 *269:26 *1865:A1 0.000171271
99 *269:26 *456:41 0.000175493
100 *269:77 *456:84 0
101 *273:52 *1838:A0 0.000176208
102 *274:31 *456:52 2.37761e-05
103 *274:31 *456:63 3.15739e-05
104 *274:31 *456:84 3.19295e-05
105 *274:53 *456:52 4.41198e-05
106 *284:10 *1829:A1 0.00010326
107 *313:8 *456:108 0.000225609
108 *324:10 *1773:A0 1.52978e-05
109 *324:10 *456:92 3.92757e-05
110 *340:8 *1829:A1 2.22999e-05
111 *362:10 *456:84 0.000153047
112 *370:10 *456:84 1.17968e-05
113 *408:239 *456:84 0
114 *409:172 *1773:A0 0.000150625
115 *409:174 *1773:A0 0.000256842
116 *409:174 *456:92 0.000509464
117 *426:98 *456:41 0
118 *426:98 *456:52 0
119 *429:46 *456:22 7.79781e-06
120 *429:46 *456:35 0.00019197
121 *451:10 *456:16 5.80706e-06
122 *453:8 *456:16 0.000141729
123 *454:49 *456:84 0.00010326
124 *455:14 *456:16 5.24292e-05
125 *455:14 *456:18 9.90431e-05
126 *455:20 *456:16 5.31541e-05
127 *455:200 *456:18 0.000175251
*RES
1 *2114:X *456:16 40.7464 
2 *456:16 *456:18 15.3214 
3 *456:18 *456:22 12.5179 
4 *456:22 *1891:A1 14.7464 
5 *456:22 *456:35 11.3036 
6 *456:35 *456:41 14.7321 
7 *456:41 *1810:A0 14.7464 
8 *456:41 *456:52 3.46429 
9 *456:52 *1847:A1 14.7464 
10 *456:52 *456:63 1.33929 
11 *456:63 *1838:A0 20.9071 
12 *456:63 *456:84 33.2679 
13 *456:84 *456:86 6.69643 
14 *456:86 *456:92 12.3571 
15 *456:92 *456:94 4.5 
16 *456:94 *456:108 23.1429 
17 *456:108 *1755:A0 32.1036 
18 *456:108 *1819:A1 9.3 
19 *456:108 *456:134 9.17857 
20 *456:134 *1791:A0 13.5321 
21 *456:134 *1800:A1 9.3 
22 *456:94 *1764:A1 9.3 
23 *456:92 *1773:A0 23.7286 
24 *456:86 *1882:A0 9.3 
25 *456:84 *1782:A1 26.6036 
26 *456:35 *1865:A1 14.4964 
27 *456:18 *456:195 3 
28 *456:195 *1856:A0 9.3 
29 *456:195 *456:202 6.69643 
30 *456:202 *1829:A1 24.5321 
31 *456:202 *1874:A0 9.83571 
*END

*D_NET *457 0.0257004
*CONN
*I *1820:A1 I *D sky130_fd_sc_hd__mux2_1
*I *1756:A0 I *D sky130_fd_sc_hd__mux2_1
*I *1801:A1 I *D sky130_fd_sc_hd__mux2_1
*I *1792:A0 I *D sky130_fd_sc_hd__mux2_1
*I *1783:A1 I *D sky130_fd_sc_hd__mux2_1
*I *1774:A0 I *D sky130_fd_sc_hd__mux2_1
*I *1765:A1 I *D sky130_fd_sc_hd__mux2_1
*I *1875:A0 I *D sky130_fd_sc_hd__mux2_1
*I *1839:A0 I *D sky130_fd_sc_hd__mux2_1
*I *1811:A0 I *D sky130_fd_sc_hd__mux2_1
*I *1848:A1 I *D sky130_fd_sc_hd__mux2_1
*I *1892:A1 I *D sky130_fd_sc_hd__mux2_1
*I *1830:A1 I *D sky130_fd_sc_hd__mux2_1
*I *1866:A1 I *D sky130_fd_sc_hd__mux2_1
*I *1857:A0 I *D sky130_fd_sc_hd__mux2_1
*I *1883:A0 I *D sky130_fd_sc_hd__mux2_1
*I *2115:X O *D sky130_fd_sc_hd__clkbuf_4
*CAP
1 *1820:A1 0.000362612
2 *1756:A0 0.00016644
3 *1801:A1 0
4 *1792:A0 0.000159471
5 *1783:A1 0.000138749
6 *1774:A0 0
7 *1765:A1 0.000100211
8 *1875:A0 0.000273376
9 *1839:A0 0
10 *1811:A0 0
11 *1848:A1 0.000207988
12 *1892:A1 4.25048e-05
13 *1830:A1 0.000387781
14 *1866:A1 0.000446818
15 *1857:A0 0
16 *1883:A0 0
17 *2115:X 0.00159523
18 *457:172 0.00124399
19 *457:138 0.000556828
20 *457:95 0.00075005
21 *457:85 0.000917697
22 *457:52 0.0009462
23 *457:50 0.00029983
24 *457:39 0.000363085
25 *457:33 0.000688336
26 *457:31 0.00198593
27 *457:29 0.00203289
28 *457:25 0.000795081
29 *457:18 0.000343306
30 *457:12 0.00058129
31 *457:10 0.00020772
32 *457:8 0.00237784
33 *1647:A1 *1756:A0 0
34 *1650:A2 *1848:A1 1.15281e-05
35 *1650:A2 *457:95 1.32552e-05
36 *1650:A3 *457:95 2.58821e-05
37 *1650:S0 *457:95 0
38 *1651:A1 *457:39 8.46507e-06
39 *1651:A1 *457:50 5.19842e-06
40 *1756:A1 *1756:A0 0
41 *1765:S *1765:A1 5.52302e-05
42 *1766:A0 *457:31 0.00014789
43 *1770:A0 *457:31 0
44 *1774:S *1783:A1 5.23057e-05
45 *1783:A0 *1783:A1 0.000425319
46 *1783:A0 *457:138 5.33005e-05
47 *1811:A1 *457:95 4.884e-05
48 *1819:S *457:31 0
49 *1820:S *1820:A1 5.7661e-06
50 *1821:S *457:18 0.000175526
51 *1830:A0 *1830:A1 0.000525381
52 *1839:A1 *457:85 4.33899e-05
53 *1839:A1 *457:95 0.000420679
54 *1839:S *457:85 0.000141729
55 *1848:A0 *1848:A1 0.000102781
56 *1857:A1 *457:50 1.40306e-05
57 *1857:S *457:50 3.15645e-05
58 *1858:S *457:50 2.19778e-05
59 *1858:S *457:52 7.79781e-06
60 *1866:A0 *1866:A1 9.33439e-05
61 *1866:S *1866:A1 0.000180066
62 *1875:A1 *1875:A0 0.000393949
63 *1875:S *1875:A0 0.000142856
64 *1879:S *457:31 0
65 *1883:A1 *457:29 0.000197991
66 *1883:S *457:18 0
67 *1883:S *457:29 9.6224e-05
68 *1883:S *457:31 0
69 *1883:S *457:138 5.52238e-05
70 *1888:S *1866:A1 0.000186669
71 *1892:A0 *1892:A1 2.27416e-05
72 *1892:S *1892:A1 5.52302e-05
73 *1892:S *457:52 0.000129636
74 *1900:D *1756:A0 0
75 *1900:D *457:172 5.93177e-05
76 *1936:D *457:29 0.00010326
77 *1937:D *457:31 0.000187902
78 *1944:CLK *457:12 0
79 *1944:CLK *457:18 0
80 *1944:D *457:138 0.000581302
81 *1960:D *457:10 5.01117e-05
82 *1960:D *457:12 9.47456e-05
83 *1960:D *457:172 0.000107494
84 *1968:CLK *457:8 8.64416e-05
85 *1968:CLK *457:10 0
86 *1968:CLK *457:12 0
87 *1968:CLK *457:172 0
88 *1968:D *457:8 1.64343e-05
89 *1980:D *457:31 0.000202842
90 *2025:D *457:39 9.25014e-06
91 *2025:D *457:50 0
92 *2025:D *457:52 0
93 *2054:D *457:31 5.35423e-05
94 *2059:D *457:31 0.000153054
95 *2066:D *1875:A0 5.33005e-05
96 *2066:D *457:33 0.00015134
97 *2066:D *457:39 0.00027338
98 *2066:D *457:50 2.56601e-05
99 *2096:A *1866:A1 0.000137983
100 *164:34 *1783:A1 0.000112995
101 *262:77 *1875:A0 0.000257749
102 *269:103 *1830:A1 5.30455e-05
103 *270:47 *457:31 0
104 *278:41 *1866:A1 0.00015134
105 *278:41 *457:52 7.07773e-05
106 *301:10 *1756:A0 0
107 *317:8 *1783:A1 5.33005e-05
108 *317:8 *457:138 0.000230475
109 *373:10 *457:95 3.34366e-05
110 *381:10 *457:95 0
111 *389:10 *457:95 1.78353e-05
112 *436:36 *457:18 6.74911e-05
113 *436:48 *457:18 7.61349e-05
114 *436:48 *457:29 0
115 *436:48 *457:31 0
116 *436:58 *457:31 9.40388e-05
117 *453:90 *1866:A1 0
118 *453:90 *457:31 0
119 *453:90 *457:33 0
120 *453:90 *457:39 0
121 *453:90 *457:52 0
122 *453:116 *457:31 0
123 *453:125 *457:31 0
124 *453:164 *457:31 0
125 *455:160 *1765:A1 0.000271352
*RES
1 *2115:X *457:8 32.4071 
2 *457:8 *457:10 1.33929 
3 *457:10 *457:12 3.16071 
4 *457:12 *457:18 10.7321 
5 *457:18 *1883:A0 9.3 
6 *457:18 *457:25 0.946429 
7 *457:25 *457:29 11.6071 
8 *457:29 *457:31 31.6964 
9 *457:31 *457:33 2.25 
10 *457:33 *457:39 8.91071 
11 *457:39 *1857:A0 9.3 
12 *457:39 *457:50 7.39286 
13 *457:50 *457:52 2.85714 
14 *457:52 *1866:A1 23.675 
15 *457:52 *1830:A1 20.9071 
16 *457:50 *1892:A1 14.7464 
17 *457:33 *457:85 11.1964 
18 *457:85 *457:95 19.3929 
19 *457:95 *1848:A1 13.2643 
20 *457:95 *1811:A0 9.3 
21 *457:85 *1839:A0 9.3 
22 *457:31 *1875:A0 21.7286 
23 *457:29 *1765:A1 16.3893 
24 *457:25 *457:138 10 
25 *457:138 *1774:A0 9.3 
26 *457:138 *1783:A1 13.9429 
27 *457:12 *1792:A0 16.3893 
28 *457:10 *1801:A1 13.8 
29 *457:8 *457:172 14.1607 
30 *457:172 *1756:A0 20.8536 
31 *457:172 *1820:A1 14.8 
*END

*D_NET *458 0.0116217
*CONN
*I *1697:A I *D sky130_fd_sc_hd__xnor2_1
*I *1698:A I *D sky130_fd_sc_hd__xnor2_1
*I *1679:B2 I *D sky130_fd_sc_hd__a221o_1
*I *1678:B2 I *D sky130_fd_sc_hd__o221ai_2
*I *1929:D I *D sky130_fd_sc_hd__dfrtp_1
*I *2031:Q O *D sky130_fd_sc_hd__dfrtp_4
*CAP
1 *1697:A 0.000553573
2 *1698:A 0.000278561
3 *1679:B2 1.03188e-05
4 *1678:B2 0
5 *1929:D 0
6 *2031:Q 0.000263657
7 *458:65 0.00116172
8 *458:42 0.00165815
9 *458:18 0.00173679
10 *458:12 0.000762368
11 *458:10 0.00126665
12 *1697:A *2031:D 0.000339213
13 *1698:A *2030:D 0.000178459
14 *1698:A *2035:D 0.000151061
15 *458:12 *1628:A 0
16 *458:12 *1906:D 5.01117e-05
17 *458:12 *462:12 0
18 *458:18 *483:10 2.39779e-05
19 *458:42 *1674:B 5.52238e-05
20 *458:42 *1903:D 0.000398719
21 *458:42 *1904:D 0.00010326
22 *458:42 *1909:D 0.000138358
23 *458:42 *1923:D 0.000128146
24 *458:42 *1924:D 1.34703e-05
25 *458:42 *1928:D 0
26 *458:42 *462:29 0.000181803
27 *1677:C1 *458:42 0.000171935
28 *1678:A2 *458:42 0
29 *1678:B1 *458:12 1.19402e-05
30 *1678:B1 *458:18 6.04162e-05
31 *1678:C1 *458:42 0.000453378
32 *1679:C1 *458:18 0.000128154
33 *1904:RESET_B *458:42 6.42242e-05
34 *1908:RESET_B *458:42 0.000153472
35 *1924:CLK *458:42 4.58194e-05
36 *1999:RESET_B *458:42 0.000119065
37 *167:6 *458:18 9.90431e-05
38 *167:6 *458:42 8.12055e-05
39 *418:110 *1697:A 0
40 *438:166 *458:42 0
41 *446:12 *458:42 0.000112532
42 *446:14 *458:42 0.000148851
43 *446:49 *458:42 0.000168703
44 *446:59 *458:42 0.000222885
45 *446:135 *1697:A 0.000126439
*RES
1 *2031:Q *458:10 17.925 
2 *458:10 *458:12 12.5714 
3 *458:12 *458:18 7.69643 
4 *458:18 *458:42 45.6607 
5 *458:42 *1929:D 9.3 
6 *458:18 *1678:B2 9.3 
7 *458:12 *1679:B2 13.9295 
8 *458:10 *458:65 9.96429 
9 *458:65 *1698:A 15.5857 
10 *458:65 *1697:A 29.9786 
*END

*D_NET *459 0.00720084
*CONN
*I *1625:A I *D sky130_fd_sc_hd__inv_2
*I *1675:B I *D sky130_fd_sc_hd__nand2b_1
*I *1925:D I *D sky130_fd_sc_hd__dfrtp_1
*I *2032:Q O *D sky130_fd_sc_hd__dfrtp_1
*CAP
1 *1625:A 5.75178e-05
2 *1675:B 2.10173e-05
3 *1925:D 0
4 *2032:Q 9.70712e-05
5 *459:29 0.000624154
6 *459:20 0.00212361
7 *459:10 0.0027663
8 *1625:A *1675:A_N 4.63229e-05
9 *1675:B *1675:A_N 9.96422e-06
10 *459:10 *1902:D 0
11 *459:10 *1905:D 0.000135311
12 *459:20 *1676:A 0
13 *459:20 *1902:D 0
14 *459:20 *1926:D 0
15 *459:20 *1994:D 0
16 *459:20 *2001:D 0
17 *459:20 *460:10 0
18 *1678:C1 *1625:A 5.33005e-05
19 *1678:C1 *459:29 0.000137983
20 *1706:A2 *459:20 0
21 *1706:B1 *459:20 9.27779e-05
22 *1929:RESET_B *459:20 3.06406e-05
23 *1987:D *459:20 0
24 *1994:RESET_B *459:20 0.000134758
25 *1995:RESET_B *459:20 7.83366e-05
26 *1999:RESET_B *459:20 0
27 *2068:A *459:10 5.90443e-06
28 *2068:A *459:20 0.000405339
29 *411:14 *459:20 0
30 *412:10 *459:20 0
31 *413:58 *459:20 0
32 *413:64 *459:20 0.000127506
33 *432:41 *459:20 7.77652e-05
34 *438:117 *459:20 0.000143484
35 *446:10 *1625:A 1.02821e-05
36 *446:10 *1675:B 7.70134e-06
37 *446:10 *459:29 1.37946e-05
*RES
1 *2032:Q *459:10 15.675 
2 *459:10 *459:20 48.8393 
3 *459:20 *1925:D 9.3 
4 *459:10 *459:29 12.8393 
5 *459:29 *1675:B 9.85804 
6 *459:29 *1625:A 10.675 
*END

*D_NET *460 0.00539456
*CONN
*I *1676:B I *D sky130_fd_sc_hd__xor2_1
*I *1926:D I *D sky130_fd_sc_hd__dfrtp_1
*I *2033:Q O *D sky130_fd_sc_hd__dfrtp_1
*CAP
1 *1676:B 0
2 *1926:D 0.00171276
3 *2033:Q 0.000580661
4 *460:10 0.00229342
5 *1926:D *1676:A 0.000322453
6 *1926:D *1927:D 0
7 *460:10 *1902:D 0.000346084
8 *460:10 *1911:D 0
9 *460:10 *1927:D 0
10 *1902:CLK *460:10 3.18676e-05
11 *1924:CLK *1926:D 0
12 *1926:CLK *1926:D 2.89016e-05
13 *1927:CLK *1926:D 0
14 *1929:RESET_B *1926:D 0
15 *2033:RESET_B *460:10 7.84156e-05
16 *413:58 *1926:D 0
17 *423:93 *1926:D 0
18 *423:95 *1926:D 0
19 *432:56 *1926:D 0
20 *432:67 *1926:D 0
21 *438:117 *1926:D 0
22 *459:20 *1926:D 0
23 *459:20 *460:10 0
*RES
1 *2033:Q *460:10 25.3179 
2 *460:10 *1926:D 44.2107 
3 *460:10 *1676:B 13.8 
*END

*D_NET *461 0.00683757
*CONN
*I *1626:A I *D sky130_fd_sc_hd__inv_2
*I *1927:D I *D sky130_fd_sc_hd__dfrtp_1
*I *2034:Q O *D sky130_fd_sc_hd__dfrtp_1
*CAP
1 *1626:A 0
2 *1927:D 0.00113361
3 *2034:Q 0.000466568
4 *461:14 0.00160018
5 *1927:D *1669:A 0.000362531
6 *1927:D *1911:D 0.001552
7 *461:14 *1911:D 0.000326492
8 *1670:B1 *1927:D 0
9 *1911:RESET_B *461:14 3.34687e-05
10 *1924:CLK *1927:D 0.000355366
11 *1926:D *1927:D 0
12 *1927:CLK *1927:D 2.89016e-05
13 *2034:RESET_B *461:14 0.000139907
14 *167:6 *461:14 5.52238e-05
15 *418:135 *1927:D 1.58163e-05
16 *418:135 *461:14 2.95726e-05
17 *423:93 *1927:D 0.0002253
18 *423:95 *1927:D 0.000222878
19 *438:117 *1927:D 5.52238e-05
20 *446:59 *461:14 9.24395e-05
21 *446:183 *461:14 0.000142093
22 *460:10 *1927:D 0
*RES
1 *2034:Q *461:14 28.7464 
2 *461:14 *1927:D 48.3357 
3 *461:14 *1626:A 9.3 
*END

*D_NET *462 0.00491878
*CONN
*I *1627:A I *D sky130_fd_sc_hd__inv_2
*I *1928:D I *D sky130_fd_sc_hd__dfrtp_1
*I *1674:B I *D sky130_fd_sc_hd__and2b_1
*I *2035:Q O *D sky130_fd_sc_hd__dfrtp_1
*CAP
1 *1627:A 1.40568e-05
2 *1928:D 0.000939699
3 *1674:B 2.62694e-05
4 *2035:Q 0.000717383
5 *462:29 0.00123913
6 *462:12 0.00102903
7 *1928:D *1675:A_N 4.46186e-06
8 *1928:D *1903:D 0
9 *1928:D *1923:D 2.71291e-05
10 *1928:D *485:8 0
11 *462:12 *1906:D 5.24274e-05
12 *462:12 *483:10 8.03134e-05
13 *462:29 *1675:A_N 0.000126765
14 *462:29 *1677:A1 5.04547e-05
15 *462:29 *483:10 6.54685e-05
16 *1677:A2 *1627:A 5.52238e-05
17 *1677:A2 *462:29 0.000137119
18 *1677:C1 *1928:D 0
19 *1678:C1 *462:12 2.84398e-05
20 *1679:C1 *462:12 1.91512e-05
21 *1681:B1 *462:29 0
22 *1904:RESET_B *1928:D 4.03318e-05
23 *1911:RESET_B *462:12 0
24 *214:14 *462:29 0
25 *446:10 *1627:A 2.89016e-05
26 *446:59 *462:12 0
27 *446:131 *462:12 0
28 *446:183 *462:12 0
29 *458:12 *462:12 0
30 *458:42 *1674:B 5.52238e-05
31 *458:42 *1928:D 0
32 *458:42 *462:29 0.000181803
*RES
1 *2035:Q *462:12 31.2107 
2 *462:12 *1674:B 9.83571 
3 *462:12 *462:29 11.3036 
4 *462:29 *1928:D 27.6929 
5 *462:29 *1627:A 14.3357 
*END

*D_NET *463 0.00130638
*CONN
*I *1664:B I *D sky130_fd_sc_hd__xor2_1
*I *1920:Q O *D sky130_fd_sc_hd__dfrtp_1
*CAP
1 *1664:B 0.000603577
2 *1920:Q 0.000603577
3 *1920:RESET_B *1664:B 1.20135e-05
4 *1925:RESET_B *1664:B 6.31721e-05
5 *201:20 *1664:B 0
6 *432:45 *1664:B 0
7 *438:12 *1664:B 2.40379e-05
*RES
1 *1920:Q *1664:B 35.5286 
*END

*D_NET *464 0.000315466
*CONN
*I *1663:A I *D sky130_fd_sc_hd__xnor2_1
*I *1921:Q O *D sky130_fd_sc_hd__dfrtp_1
*CAP
1 *1663:A 3.66123e-05
2 *1921:Q 3.66123e-05
3 *209:10 *1663:A 0.000129868
4 *438:55 *1663:A 0.00010326
5 *438:87 *1663:A 9.11365e-06
*RES
1 *1921:Q *1663:A 29.2429 
*END

*D_NET *465 0.000403656
*CONN
*I *1662:A I *D sky130_fd_sc_hd__xnor2_1
*I *1922:Q O *D sky130_fd_sc_hd__dfrtp_1
*CAP
1 *1662:A 0.000175985
2 *1922:Q 0.000175985
3 *1672:C1 *1662:A 5.16852e-05
*RES
1 *1922:Q *1662:A 30.4929 
*END

*D_NET *466 0.00101984
*CONN
*I *1661:B I *D sky130_fd_sc_hd__xor2_1
*I *1923:Q O *D sky130_fd_sc_hd__dfrtp_1
*CAP
1 *1661:B 0.0004467
2 *1923:Q 0.0004467
3 *1661:B *467:12 0.000126439
4 rdata[5] *1661:B 0
5 *2119:A *1661:B 0
6 *438:155 *1661:B 0
7 *438:166 *1661:B 0
*RES
1 *1923:Q *1661:B 35.35 
*END

*D_NET *467 0.000801165
*CONN
*I *1661:A I *D sky130_fd_sc_hd__xor2_1
*I *1669:B I *D sky130_fd_sc_hd__xnor2_1
*I *1924:Q O *D sky130_fd_sc_hd__dfrtp_1
*CAP
1 *1661:A 0
2 *1669:B 0.000137944
3 *1924:Q 0.000124675
4 *467:12 0.000262619
5 *1661:B *467:12 0.000126439
6 *438:155 *467:12 0
7 *447:20 *1669:B 0.000149489
*RES
1 *1924:Q *467:12 20.4786 
2 *467:12 *1669:B 12.3179 
3 *467:12 *1661:A 9.3 
*END

*D_NET *468 0.000319652
*CONN
*I *1920:D I *D sky130_fd_sc_hd__dfrtp_1
*I *1925:Q O *D sky130_fd_sc_hd__dfrtp_1
*CAP
1 *1920:D 0.000107515
2 *1925:Q 0.000107515
3 *1925:RESET_B *1920:D 4.93979e-05
4 *432:41 *1920:D 5.52238e-05
*RES
1 *1925:Q *1920:D 20.9214 
*END

*D_NET *469 0.000926778
*CONN
*I *1921:D I *D sky130_fd_sc_hd__dfrtp_1
*I *1926:Q O *D sky130_fd_sc_hd__dfrtp_1
*CAP
1 *1921:D 0.00035119
2 *1926:Q 0.00035119
3 *1926:RESET_B *1921:D 0.000138106
4 *1996:RESET_B *1921:D 3.05973e-05
5 *432:56 *1921:D 5.56943e-05
*RES
1 *1926:Q *1921:D 32.7607 
*END

*D_NET *470 0.00103357
*CONN
*I *1922:D I *D sky130_fd_sc_hd__dfrtp_1
*I *1927:Q O *D sky130_fd_sc_hd__dfrtp_1
*CAP
1 *1922:D 0.000377831
2 *1927:Q 0.000377831
3 *1672:A1 *1922:D 0
4 *1927:CLK *1922:D 2.63433e-05
5 *1927:RESET_B *1922:D 2.51837e-05
6 *199:12 *1922:D 2.59355e-05
7 *438:103 *1922:D 4.43256e-05
8 *438:117 *1922:D 0.000156119
*RES
1 *1927:Q *1922:D 35.4393 
*END

*D_NET *471 0.0012452
*CONN
*I *1923:D I *D sky130_fd_sc_hd__dfrtp_1
*I *1928:Q O *D sky130_fd_sc_hd__dfrtp_1
*CAP
1 *1923:D 0.000480027
2 *1928:Q 0.000480027
3 *1908:RESET_B *1923:D 0.000129868
4 *1928:D *1923:D 2.71291e-05
5 *458:42 *1923:D 0.000128146
*RES
1 *1928:Q *1923:D 34.2964 
*END

*D_NET *472 0.000385065
*CONN
*I *1924:D I *D sky130_fd_sc_hd__dfrtp_1
*I *1929:Q O *D sky130_fd_sc_hd__dfrtp_1
*CAP
1 *1924:D 0.000177889
2 *1929:Q 0.000177889
3 *1924:CLK *1924:D 1.58163e-05
4 *458:42 *1924:D 1.34703e-05
*RES
1 *1929:Q *1924:D 20.7964 
*END

*D_NET *473 0.00093141
*CONN
*I *1907:D I *D sky130_fd_sc_hd__dfrtp_1
*I *1999:Q O *D sky130_fd_sc_hd__dfrtp_1
*CAP
1 *1907:D 0.000263487
2 *1999:Q 0.000263487
3 *1907:D *1910:D 0.000299274
4 *423:78 *1907:D 0.000105163
*RES
1 *1999:Q *1907:D 33.1357 
*END

*D_NET *474 0.00215389
*CONN
*I *1908:D I *D sky130_fd_sc_hd__dfrtp_1
*I *2000:Q O *D sky130_fd_sc_hd__dfrtp_1
*CAP
1 *1908:D 0.000838002
2 *2000:Q 0.000838002
3 *1908:D *1910:D 6.12813e-05
4 *1908:D *1997:D 0
5 *1908:D *1999:D 0.000292715
6 *1908:D *2001:D 0
7 *1706:A3 *1908:D 0.00012389
8 *1997:CLK *1908:D 0
9 *1999:RESET_B *1908:D 0
10 *423:33 *1908:D 0
*RES
1 *2000:Q *1908:D 41.6536 
*END

*D_NET *475 0.00328473
*CONN
*I *1909:D I *D sky130_fd_sc_hd__dfrtp_1
*I *2001:Q O *D sky130_fd_sc_hd__dfrtp_1
*CAP
1 *1909:D 0.000766299
2 *2001:Q 0.000766299
3 *1909:D *1669:A 0.000185734
4 *1909:D *1911:D 7.80714e-06
5 *1908:RESET_B *1909:D 0.000394712
6 *1912:CLK *1909:D 0.000213277
7 *418:139 *1909:D 0.000177948
8 *418:141 *1909:D 0.000368104
9 *438:166 *1909:D 0
10 *446:14 *1909:D 0.000216771
11 *447:20 *1909:D 4.942e-05
12 *458:42 *1909:D 0.000138358
*RES
1 *2001:Q *1909:D 45.6179 
*END

*D_NET *476 0.00281754
*CONN
*I *1910:D I *D sky130_fd_sc_hd__dfrtp_1
*I *2002:Q O *D sky130_fd_sc_hd__dfrtp_1
*CAP
1 *1910:D 0.000925785
2 *2002:Q 0.000925785
3 *1910:D *1999:D 0.000295021
4 *1712:A *1910:D 5.86416e-05
5 *1907:CLK *1910:D 0
6 *1907:D *1910:D 0.000299274
7 *1908:D *1910:D 6.12813e-05
8 *1998:RESET_B *1910:D 0
9 *1999:RESET_B *1910:D 0
10 *2002:RESET_B *1910:D 0.00010096
11 *27:14 *1910:D 0.000103253
12 *418:22 *1910:D 0
13 *423:33 *1910:D 4.75428e-05
*RES
1 *2002:Q *1910:D 47.725 
*END

*D_NET *477 0.0107878
*CONN
*I *1911:D I *D sky130_fd_sc_hd__dfrtp_1
*I *1669:A I *D sky130_fd_sc_hd__xnor2_1
*I *1714:A I *D sky130_fd_sc_hd__xnor2_1
*I *1715:A I *D sky130_fd_sc_hd__xor2_1
*I *1998:Q O *D sky130_fd_sc_hd__dfrtp_2
*CAP
1 *1911:D 0.000770377
2 *1669:A 0.000308751
3 *1714:A 0.000286754
4 *1715:A 8.76971e-05
5 *1998:Q 0
6 *477:32 0.00159888
7 *477:10 0.000856578
8 *477:4 0.00100188
9 *1911:D *1674:A_N 1.91512e-05
10 *1911:D *1902:D 0
11 *477:10 *2002:D 6.27695e-05
12 *1712:A *477:10 0.000265726
13 *1719:A1 *1714:A 0.000392297
14 *1909:D *1669:A 0.000185734
15 *1909:D *1911:D 7.80714e-06
16 *1912:CLK *1911:D 0.000106084
17 *1927:D *1669:A 0.000362531
18 *1927:D *1911:D 0.001552
19 *27:14 *477:10 4.87854e-05
20 *27:14 *477:32 0.000662895
21 *231:12 *1714:A 0.000753573
22 *265:101 *1714:A 0
23 *418:135 *1911:D 0.00026449
24 *418:137 *1911:D 9.12446e-05
25 *418:139 *1911:D 0.000118095
26 *418:141 *1911:D 0.000197543
27 *446:59 *1911:D 0
28 *446:121 *1911:D 0.000179062
29 *446:131 *1911:D 4.46186e-06
30 *447:20 *1669:A 0.000276186
31 *460:10 *1911:D 0
32 *461:14 *1911:D 0.000326492
*RES
1 *1998:Q *477:4 9.3 
2 *477:4 *477:10 9.71429 
3 *477:10 *1715:A 10.6571 
4 *477:10 *1714:A 28.1393 
5 *477:4 *477:32 16.125 
6 *477:32 *1669:A 23.1214 
7 *477:32 *1911:D 40.8714 
*END

*D_NET *478 0.0015714
*CONN
*I *1902:D I *D sky130_fd_sc_hd__dfrtp_1
*I *1907:Q O *D sky130_fd_sc_hd__dfrtp_1
*CAP
1 *1902:D 0.000612656
2 *1907:Q 0.000612656
3 *1902:D *1905:D 0
4 *1911:D *1902:D 0
5 *2068:A *1902:D 0
6 *418:12 *1902:D 0
7 *418:65 *1902:D 0
8 *459:10 *1902:D 0
9 *459:20 *1902:D 0
10 *460:10 *1902:D 0.000346084
*RES
1 *1907:Q *1902:D 38.8143 
*END

*D_NET *479 0.0029157
*CONN
*I *1903:D I *D sky130_fd_sc_hd__dfrtp_1
*I *1908:Q O *D sky130_fd_sc_hd__dfrtp_1
*CAP
1 *1903:D 0.000871269
2 *1908:Q 0.000871269
3 *1903:CLK *1903:D 7.77751e-05
4 *1908:RESET_B *1903:D 0.000696664
5 *1928:D *1903:D 0
6 *1928:RESET_B *1903:D 0
7 *438:166 *1903:D 0
8 *458:42 *1903:D 0.000398719
*RES
1 *1908:Q *1903:D 42.1714 
*END

*D_NET *480 0.00139409
*CONN
*I *1904:D I *D sky130_fd_sc_hd__dfrtp_1
*I *1909:Q O *D sky130_fd_sc_hd__dfrtp_1
*CAP
1 *1904:D 0.000526086
2 *1909:Q 0.000526086
3 *1909:RESET_B *1904:D 0.000133688
4 *446:12 *1904:D 0.000104974
5 *458:42 *1904:D 0.00010326
*RES
1 *1909:Q *1904:D 34.8143 
*END

*D_NET *481 0.000645
*CONN
*I *1905:D I *D sky130_fd_sc_hd__dfrtp_1
*I *1910:Q O *D sky130_fd_sc_hd__dfrtp_1
*CAP
1 *1905:D 0.00015535
2 *1910:Q 0.00015535
3 *1902:D *1905:D 0
4 *2068:A *1905:D 5.56943e-05
5 *216:18 *1905:D 6.55205e-05
6 *418:16 *1905:D 7.77751e-05
7 *459:10 *1905:D 0.000135311
*RES
1 *1910:Q *1905:D 31.5286 
*END

*D_NET *482 0.000597383
*CONN
*I *1906:D I *D sky130_fd_sc_hd__dfrtp_1
*I *1911:Q O *D sky130_fd_sc_hd__dfrtp_1
*CAP
1 *1906:D 0.000247422
2 *1911:Q 0.000247422
3 *458:12 *1906:D 5.01117e-05
4 *462:12 *1906:D 5.24274e-05
*RES
1 *1911:Q *1906:D 31.1179 
*END

*D_NET *483 0.00180748
*CONN
*I *1677:A1 I *D sky130_fd_sc_hd__a221o_1
*I *1675:A_N I *D sky130_fd_sc_hd__nand2b_1
*I *1902:Q O *D sky130_fd_sc_hd__dfrtp_1
*CAP
1 *1677:A1 3.0238e-05
2 *1675:A_N 0.000197577
3 *1902:Q 0.000273559
4 *483:10 0.000501374
5 *1625:A *1675:A_N 4.63229e-05
6 *1675:B *1675:A_N 9.96422e-06
7 *1677:A2 *1675:A_N 5.52238e-05
8 *1677:B2 *1675:A_N 0.00012401
9 *1677:C1 *1675:A_N 2.05987e-05
10 *1678:B1 *483:10 0
11 *1678:C1 *1675:A_N 0
12 *1678:C1 *483:10 0
13 *1679:C1 *483:10 7.6644e-05
14 *1928:D *1675:A_N 4.46186e-06
15 *446:10 *1675:A_N 0.000120526
16 *458:18 *483:10 2.39779e-05
17 *462:12 *483:10 8.03134e-05
18 *462:29 *1675:A_N 0.000126765
19 *462:29 *1677:A1 5.04547e-05
20 *462:29 *483:10 6.54685e-05
*RES
1 *1902:Q *483:10 18.6661 
2 *483:10 *1675:A_N 19.5054 
3 *483:10 *1677:A1 14.9161 
*END

*D_NET *484 0.000750282
*CONN
*I *1676:A I *D sky130_fd_sc_hd__xor2_1
*I *1903:Q O *D sky130_fd_sc_hd__dfrtp_1
*CAP
1 *1676:A 0.000195746
2 *1903:Q 0.000195746
3 *1926:D *1676:A 0.000322453
4 *423:78 *1676:A 7.43578e-06
5 *423:93 *1676:A 2.89016e-05
6 *459:20 *1676:A 0
*RES
1 *1903:Q *1676:A 32.2071 
*END

*D_NET *485 0.00168362
*CONN
*I *1679:A1 I *D sky130_fd_sc_hd__a221o_1
*I *1678:A1 I *D sky130_fd_sc_hd__o221ai_2
*I *1904:Q O *D sky130_fd_sc_hd__dfrtp_1
*CAP
1 *1679:A1 0.000253152
2 *1678:A1 3.34397e-05
3 *1904:Q 0.000322073
4 *485:8 0.000608664
5 *1677:A2 *485:8 0
6 *1679:A2 *1679:A1 1.46576e-05
7 *1679:B1 *1679:A1 6.05161e-06
8 *1681:B1 *1678:A1 1.58163e-05
9 *1681:B1 *485:8 0.000148189
10 *1928:D *485:8 0
11 *2104:A *485:8 0
12 *2117:A *485:8 0.000101873
13 *169:6 *1679:A1 0.000108907
14 *215:12 *1679:A1 4.06875e-05
15 *215:12 *485:8 3.01126e-05
*RES
1 *1904:Q *485:8 20.6036 
2 *485:8 *1678:A1 14.3357 
3 *485:8 *1679:A1 18.4607 
*END

*D_NET *486 0.00105499
*CONN
*I *1677:B1 I *D sky130_fd_sc_hd__a221o_1
*I *1674:A_N I *D sky130_fd_sc_hd__and2b_1
*I *1905:Q O *D sky130_fd_sc_hd__dfrtp_1
*CAP
1 *1677:B1 0.00020761
2 *1674:A_N 0.000158156
3 *1905:Q 0
4 *486:4 0.000365766
5 *1677:B2 *1677:B1 8.66619e-06
6 *1681:A1 *1677:B1 0
7 *1911:D *1674:A_N 1.91512e-05
8 *216:18 *1674:A_N 5.70439e-05
9 *216:18 *1677:B1 3.20791e-05
10 *418:135 *1674:A_N 7.83587e-05
11 *446:59 *1674:A_N 0.000128154
*RES
1 *1905:Q *486:4 9.3 
2 *486:4 *1674:A_N 21.3 
3 *486:4 *1677:B1 12.1036 
*END

*D_NET *487 0.000609508
*CONN
*I *1628:A I *D sky130_fd_sc_hd__inv_2
*I *1906:Q O *D sky130_fd_sc_hd__dfrtp_1
*CAP
1 *1628:A 0.000304754
2 *1906:Q 0.000304754
3 *1678:B1 *1628:A 0
4 *458:12 *1628:A 0
*RES
1 *1906:Q *1628:A 31.725 
*END

*D_NET *488 0.000598924
*CONN
*I *2027:D I *D sky130_fd_sc_hd__dfrtp_4
*I *1684:Y O *D sky130_fd_sc_hd__nor2_1
*CAP
1 *2027:D 0.000271352
2 *1684:Y 0.000271352
3 *1684:B *2027:D 2.59355e-05
4 *2071:A *2027:D 3.0285e-05
*RES
1 *1684:Y *2027:D 31.3143 
*END

*D_NET *489 0.000225009
*CONN
*I *2028:D I *D sky130_fd_sc_hd__dfrtp_4
*I *1687:Y O *D sky130_fd_sc_hd__nor2_1
*CAP
1 *2028:D 6.00171e-05
2 *1687:Y 6.00171e-05
3 *1689:B *2028:D 0.000104974
4 *2028:RESET_B *2028:D 0
5 *409:8 *2028:D 0
*RES
1 *1687:Y *2028:D 28.9393 
*END

*D_NET *490 0.000989597
*CONN
*I *2029:D I *D sky130_fd_sc_hd__dfrtp_4
*I *1691:Y O *D sky130_fd_sc_hd__nor2_1
*CAP
1 *2029:D 0.000293796
2 *1691:Y 0.000293796
3 *1691:B *2029:D 5.33786e-05
4 *410:10 *2029:D 3.34672e-05
5 *446:151 *2029:D 0.000315158
*RES
1 *1691:Y *2029:D 32.475 
*END

*D_NET *491 0.000987089
*CONN
*I *2030:D I *D sky130_fd_sc_hd__dfrtp_4
*I *1695:X O *D sky130_fd_sc_hd__and2b_1
*CAP
1 *2030:D 0.000384227
2 *1695:X 0.000384227
3 *1698:A *2030:D 0.000178459
4 *1698:B *2030:D 4.01768e-05
5 *418:110 *2030:D 0
*RES
1 *1695:X *2030:D 33.1714 
*END

*D_NET *492 0.00118776
*CONN
*I *2031:D I *D sky130_fd_sc_hd__dfrtp_4
*I *1697:Y O *D sky130_fd_sc_hd__xnor2_1
*CAP
1 *2031:D 0.000424273
2 *1697:Y 0.000424273
3 *1697:A *2031:D 0.000339213
*RES
1 *1697:Y *2031:D 34.2964 
*END

*D_NET *493 0.000997941
*CONN
*I *2032:D I *D sky130_fd_sc_hd__dfrtp_1
*I *1688:Y O *D sky130_fd_sc_hd__xnor2_1
*CAP
1 *2032:D 0.000280758
2 *1688:Y 0.000280758
3 *1683:A *2032:D 5.71472e-05
4 *1688:B *2032:D 4.14279e-05
5 *216:18 *2032:D 0.000165511
6 *418:16 *2032:D 7.32955e-05
7 *418:20 *2032:D 9.90431e-05
*RES
1 *1688:Y *2032:D 24.4929 
*END

*D_NET *494 0.00128531
*CONN
*I *2033:D I *D sky130_fd_sc_hd__dfrtp_1
*I *1692:Y O *D sky130_fd_sc_hd__xnor2_1
*CAP
1 *2033:D 0.000493913
2 *1692:Y 0.000493913
3 *2033:D *2034:D 5.52238e-05
4 *1690:B *2033:D 0.000232399
5 *2033:CLK *2033:D 0
6 *2068:A *2033:D 0
7 *2071:A *2033:D 0
8 *417:108 *2033:D 9.86436e-06
*RES
1 *1692:Y *2033:D 36.9036 
*END

*D_NET *495 0.000771078
*CONN
*I *2034:D I *D sky130_fd_sc_hd__dfrtp_1
*I *1696:Y O *D sky130_fd_sc_hd__xnor2_1
*CAP
1 *2034:D 0.000337131
2 *1696:Y 0.000337131
3 *2033:D *2034:D 5.52238e-05
4 *222:8 *2034:D 4.15914e-05
5 *417:108 *2034:D 0
*RES
1 *1696:Y *2034:D 31.9616 
*END

*D_NET *496 0.000802275
*CONN
*I *2035:D I *D sky130_fd_sc_hd__dfrtp_1
*I *1698:Y O *D sky130_fd_sc_hd__xnor2_1
*CAP
1 *2035:D 0.000228098
2 *1698:Y 0.000228098
3 *1698:A *2035:D 0.000151061
4 *418:97 *2035:D 5.29278e-05
5 *418:110 *2035:D 0.00014209
*RES
1 *1698:Y *2035:D 32.7429 
*END

*D_NET *497 0.000568256
*CONN
*I *1994:D I *D sky130_fd_sc_hd__dfrtp_4
*I *1701:X O *D sky130_fd_sc_hd__xor2_1
*CAP
1 *1994:D 0.000202468
2 *1701:X 0.000202468
3 *1701:B *1994:D 1.24368e-05
4 *2116:A *1994:D 1.88048e-05
5 *225:8 *1994:D 3.30352e-05
6 *411:14 *1994:D 9.90431e-05
7 *432:98 *1994:D 0
8 *459:20 *1994:D 0
*RES
1 *1701:X *1994:D 30.7964 
*END

*D_NET *498 0.00103302
*CONN
*I *1995:D I *D sky130_fd_sc_hd__dfrtp_4
*I *1704:Y O *D sky130_fd_sc_hd__nor2_1
*CAP
1 *1995:D 0.000372686
2 *1704:Y 0.000372686
3 *1704:A *1995:D 0.000196177
4 *2116:A *1995:D 0
5 *227:8 *1995:D 9.1469e-05
6 *432:98 *1995:D 0
*RES
1 *1704:Y *1995:D 34.7429 
*END

*D_NET *499 0.000554756
*CONN
*I *1996:D I *D sky130_fd_sc_hd__dfrtp_4
*I *1707:X O *D sky130_fd_sc_hd__xor2_1
*CAP
1 *1996:D 0.000111671
2 *1707:X 0.000111671
3 *2000:CLK *1996:D 5.81455e-05
4 *413:10 *1996:D 0.000273269
5 *413:23 *1996:D 0
*RES
1 *1707:X *1996:D 21.9214 
*END

*D_NET *500 0.00121484
*CONN
*I *1997:D I *D sky130_fd_sc_hd__dfrtp_1
*I *1712:X O *D sky130_fd_sc_hd__and2_1
*CAP
1 *1997:D 0.000300157
2 *1712:X 0.000300157
3 *1700:A *1997:D 0.000140001
4 *1712:B *1997:D 0.000180777
5 *1908:D *1997:D 0
6 *1997:CLK *1997:D 1.91418e-05
7 *1998:RESET_B *1997:D 5.33786e-05
8 *2000:RESET_B *1997:D 4.46186e-06
9 *165:29 *1997:D 5.71472e-05
10 *411:179 *1997:D 1.40306e-05
11 *438:185 *1997:D 0.000145584
*RES
1 *1712:X *1997:D 34.5821 
*END

*D_NET *501 0.00117257
*CONN
*I *1998:D I *D sky130_fd_sc_hd__dfrtp_2
*I *1714:Y O *D sky130_fd_sc_hd__xnor2_1
*CAP
1 *1998:D 0.000478931
2 *1714:Y 0.000478931
3 *1998:RESET_B *1998:D 0
4 *231:12 *1998:D 0
5 *423:10 *1998:D 7.58571e-05
6 *423:12 *1998:D 0.00013885
*RES
1 *1714:Y *1998:D 37.475 
*END

*D_NET *502 0.00384553
*CONN
*I *1999:D I *D sky130_fd_sc_hd__dfrtp_1
*I *1705:Y O *D sky130_fd_sc_hd__xnor2_1
*CAP
1 *1999:D 0.00119293
2 *1705:Y 0.00119293
3 *1908:D *1999:D 0.000292715
4 *1910:D *1999:D 0.000295021
5 *1929:CLK *1999:D 0.00022459
6 *1999:RESET_B *1999:D 0
7 *27:14 *1999:D 0.000101545
8 *423:29 *1999:D 0.000228558
9 *423:78 *1999:D 0.000317231
*RES
1 *1705:Y *1999:D 48.5107 
*END

*D_NET *503 0.00123727
*CONN
*I *2000:D I *D sky130_fd_sc_hd__dfrtp_1
*I *1708:Y O *D sky130_fd_sc_hd__xnor2_1
*CAP
1 *2000:D 0.000274147
2 *1708:Y 0.000274147
3 *1704:B *2000:D 0.000128154
4 *1706:A3 *2000:D 0.000141835
5 *2000:CLK *2000:D 7.57773e-05
6 *413:76 *2000:D 2.88018e-06
7 *413:80 *2000:D 1.24368e-05
8 *450:8 *2000:D 5.52238e-05
9 *450:226 *2000:D 0.000272665
*RES
1 *1708:Y *2000:D 33.6937 
*END

*D_NET *504 0.000436059
*CONN
*I *2001:D I *D sky130_fd_sc_hd__dfrtp_1
*I *1713:Y O *D sky130_fd_sc_hd__xnor2_1
*CAP
1 *2001:D 0.000167549
2 *1713:Y 0.000167549
3 *1706:A1 *2001:D 0.00010096
4 *1908:D *2001:D 0
5 *459:20 *2001:D 0
*RES
1 *1713:Y *2001:D 30.1893 
*END

*D_NET *505 0.00112112
*CONN
*I *2002:D I *D sky130_fd_sc_hd__dfrtp_1
*I *1715:X O *D sky130_fd_sc_hd__xor2_1
*CAP
1 *2002:D 0.000274816
2 *1715:X 0.000274816
3 *1710:A *2002:D 0.000148196
4 *1712:A *2002:D 3.69697e-05
5 *1998:RESET_B *2002:D 0
6 *2002:CLK *2002:D 0.000195547
7 *411:207 *2002:D 2.89016e-05
8 *423:14 *2002:D 9.91086e-05
9 *477:10 *2002:D 6.27695e-05
*RES
1 *1715:X *2002:D 33.2607 
*END
