*SPEF "ieee 1481-1999"
*DESIGN "async_fifo"
*DATE "16:07:26 Friday August 14, 2026"
*VENDOR "The OpenROAD Project"
*PROGRAM "OpenROAD"
*VERSION "edf00dff99f6c40d67a30c0e22a8191c5d2ed9d6"
*DESIGN_FLOW "NAME_SCOPE LOCAL" "PIN_CAP NONE"
*DIVIDER /
*DELIMITER :
*BUS_DELIMITER []
*T_UNIT 1 NS
*C_UNIT 1 PF
*R_UNIT 1 OHM
*L_UNIT 1 HENRY

*NAME_MAP
*3 empty
*4 full
*5 rclk
*6 rdata[0]
*7 rdata[1]
*8 rdata[2]
*9 rdata[3]
*10 rdata[4]
*11 rdata[5]
*12 rdata[6]
*13 rdata[7]
*14 ren
*15 rrst_n
*16 wclk
*17 wdata[0]
*18 wdata[1]
*19 wdata[2]
*20 wdata[3]
*21 wdata[4]
*22 wdata[5]
*23 wdata[6]
*24 wdata[7]
*25 wen
*26 wrst_n
*27 _000_
*28 _001_
*29 _002_
*30 _003_
*31 _004_
*32 _005_
*33 _006_
*34 _007_
*35 _008_
*36 _009_
*37 _010_
*38 _011_
*39 _012_
*40 _013_
*41 _014_
*42 _015_
*43 _016_
*44 _017_
*45 _018_
*46 _019_
*47 _020_
*48 _021_
*49 _022_
*50 _023_
*51 _024_
*52 _025_
*53 _026_
*54 _027_
*55 _028_
*56 _029_
*57 _030_
*58 _031_
*59 _032_
*60 _033_
*61 _034_
*62 _035_
*63 _036_
*64 _037_
*65 _038_
*66 _039_
*67 _040_
*68 _041_
*69 _042_
*70 _043_
*71 _044_
*72 _045_
*73 _046_
*74 _047_
*75 _048_
*76 _049_
*77 _050_
*78 _051_
*79 _052_
*80 _053_
*81 _054_
*82 _055_
*83 _056_
*84 _057_
*85 _058_
*86 _059_
*87 _060_
*88 _061_
*89 _062_
*90 _063_
*91 _064_
*92 _065_
*93 _066_
*94 _067_
*95 _068_
*96 _069_
*97 _070_
*98 _071_
*99 _072_
*100 _073_
*101 _074_
*102 _075_
*103 _076_
*104 _077_
*105 _078_
*106 _079_
*107 _080_
*108 _081_
*109 _082_
*110 _083_
*111 _084_
*112 _085_
*113 _086_
*114 _087_
*115 _088_
*116 _089_
*117 _090_
*118 _091_
*119 _092_
*120 _093_
*121 _094_
*122 _095_
*123 _096_
*124 _097_
*125 _098_
*126 _099_
*127 _100_
*128 _101_
*129 _102_
*130 _103_
*131 _104_
*132 _105_
*133 _106_
*134 _107_
*135 _108_
*136 _109_
*137 _110_
*138 _111_
*139 _112_
*140 _113_
*141 _114_
*142 _115_
*143 _116_
*144 _117_
*145 _118_
*146 _119_
*147 _120_
*148 _121_
*149 _122_
*150 _123_
*151 _124_
*152 _125_
*153 _126_
*154 _127_
*155 _128_
*156 _129_
*157 _130_
*158 _131_
*159 _132_
*160 _133_
*161 _134_
*162 _135_
*163 _136_
*164 _137_
*165 _138_
*166 _139_
*167 _140_
*168 _141_
*169 _142_
*170 _143_
*171 _144_
*172 _145_
*173 _146_
*174 _147_
*175 _148_
*176 _149_
*177 _150_
*178 _151_
*179 _152_
*180 _153_
*181 _154_
*182 _155_
*183 _156_
*184 _157_
*185 _158_
*186 _159_
*187 _160_
*188 _161_
*189 _162_
*190 _163_
*191 _164_
*192 _165_
*193 _166_
*194 _167_
*195 _168_
*196 _169_
*197 _170_
*198 _171_
*199 _172_
*200 _173_
*201 _174_
*202 _175_
*203 _176_
*204 _177_
*205 _178_
*206 _179_
*207 _180_
*208 _181_
*209 _182_
*210 _183_
*211 _184_
*212 _185_
*213 _186_
*214 _187_
*215 _188_
*216 _189_
*217 _190_
*218 _191_
*219 _192_
*220 _193_
*221 _194_
*222 _195_
*223 _196_
*224 _197_
*225 _198_
*226 _199_
*227 _200_
*228 _201_
*229 _202_
*230 _203_
*231 _204_
*232 _205_
*233 _206_
*234 _207_
*235 _208_
*236 _209_
*237 _210_
*238 _211_
*239 _212_
*240 _213_
*241 _214_
*242 _215_
*243 _216_
*244 _217_
*245 _218_
*246 _219_
*247 _220_
*248 _221_
*249 _222_
*250 _223_
*251 _224_
*252 _225_
*253 _226_
*254 _227_
*255 _228_
*256 _229_
*257 _230_
*258 _231_
*259 _232_
*260 _233_
*261 _234_
*262 _235_
*263 _236_
*264 _237_
*265 _238_
*266 _239_
*267 _240_
*268 _241_
*269 _242_
*270 _243_
*271 _244_
*272 _245_
*273 _246_
*274 _247_
*275 _248_
*276 _249_
*277 _250_
*278 _251_
*279 bram\.mem\[0\]\[0\]
*280 bram\.mem\[0\]\[1\]
*281 bram\.mem\[0\]\[2\]
*282 bram\.mem\[0\]\[3\]
*283 bram\.mem\[0\]\[4\]
*284 bram\.mem\[0\]\[5\]
*285 bram\.mem\[0\]\[6\]
*286 bram\.mem\[0\]\[7\]
*287 bram\.mem\[10\]\[0\]
*288 bram\.mem\[10\]\[1\]
*289 bram\.mem\[10\]\[2\]
*290 bram\.mem\[10\]\[3\]
*291 bram\.mem\[10\]\[4\]
*292 bram\.mem\[10\]\[5\]
*293 bram\.mem\[10\]\[6\]
*294 bram\.mem\[10\]\[7\]
*295 bram\.mem\[11\]\[0\]
*296 bram\.mem\[11\]\[1\]
*297 bram\.mem\[11\]\[2\]
*298 bram\.mem\[11\]\[3\]
*299 bram\.mem\[11\]\[4\]
*300 bram\.mem\[11\]\[5\]
*301 bram\.mem\[11\]\[6\]
*302 bram\.mem\[11\]\[7\]
*303 bram\.mem\[12\]\[0\]
*304 bram\.mem\[12\]\[1\]
*305 bram\.mem\[12\]\[2\]
*306 bram\.mem\[12\]\[3\]
*307 bram\.mem\[12\]\[4\]
*308 bram\.mem\[12\]\[5\]
*309 bram\.mem\[12\]\[6\]
*310 bram\.mem\[12\]\[7\]
*311 bram\.mem\[13\]\[0\]
*312 bram\.mem\[13\]\[1\]
*313 bram\.mem\[13\]\[2\]
*314 bram\.mem\[13\]\[3\]
*315 bram\.mem\[13\]\[4\]
*316 bram\.mem\[13\]\[5\]
*317 bram\.mem\[13\]\[6\]
*318 bram\.mem\[13\]\[7\]
*319 bram\.mem\[14\]\[0\]
*320 bram\.mem\[14\]\[1\]
*321 bram\.mem\[14\]\[2\]
*322 bram\.mem\[14\]\[3\]
*323 bram\.mem\[14\]\[4\]
*324 bram\.mem\[14\]\[5\]
*325 bram\.mem\[14\]\[6\]
*326 bram\.mem\[14\]\[7\]
*327 bram\.mem\[15\]\[0\]
*328 bram\.mem\[15\]\[1\]
*329 bram\.mem\[15\]\[2\]
*330 bram\.mem\[15\]\[3\]
*331 bram\.mem\[15\]\[4\]
*332 bram\.mem\[15\]\[5\]
*333 bram\.mem\[15\]\[6\]
*334 bram\.mem\[15\]\[7\]
*335 bram\.mem\[1\]\[0\]
*336 bram\.mem\[1\]\[1\]
*337 bram\.mem\[1\]\[2\]
*338 bram\.mem\[1\]\[3\]
*339 bram\.mem\[1\]\[4\]
*340 bram\.mem\[1\]\[5\]
*341 bram\.mem\[1\]\[6\]
*342 bram\.mem\[1\]\[7\]
*343 bram\.mem\[2\]\[0\]
*344 bram\.mem\[2\]\[1\]
*345 bram\.mem\[2\]\[2\]
*346 bram\.mem\[2\]\[3\]
*347 bram\.mem\[2\]\[4\]
*348 bram\.mem\[2\]\[5\]
*349 bram\.mem\[2\]\[6\]
*350 bram\.mem\[2\]\[7\]
*351 bram\.mem\[3\]\[0\]
*352 bram\.mem\[3\]\[1\]
*353 bram\.mem\[3\]\[2\]
*354 bram\.mem\[3\]\[3\]
*355 bram\.mem\[3\]\[4\]
*356 bram\.mem\[3\]\[5\]
*357 bram\.mem\[3\]\[6\]
*358 bram\.mem\[3\]\[7\]
*359 bram\.mem\[4\]\[0\]
*360 bram\.mem\[4\]\[1\]
*361 bram\.mem\[4\]\[2\]
*362 bram\.mem\[4\]\[3\]
*363 bram\.mem\[4\]\[4\]
*364 bram\.mem\[4\]\[5\]
*365 bram\.mem\[4\]\[6\]
*366 bram\.mem\[4\]\[7\]
*367 bram\.mem\[5\]\[0\]
*368 bram\.mem\[5\]\[1\]
*369 bram\.mem\[5\]\[2\]
*370 bram\.mem\[5\]\[3\]
*371 bram\.mem\[5\]\[4\]
*372 bram\.mem\[5\]\[5\]
*373 bram\.mem\[5\]\[6\]
*374 bram\.mem\[5\]\[7\]
*375 bram\.mem\[6\]\[0\]
*376 bram\.mem\[6\]\[1\]
*377 bram\.mem\[6\]\[2\]
*378 bram\.mem\[6\]\[3\]
*379 bram\.mem\[6\]\[4\]
*380 bram\.mem\[6\]\[5\]
*381 bram\.mem\[6\]\[6\]
*382 bram\.mem\[6\]\[7\]
*383 bram\.mem\[7\]\[0\]
*384 bram\.mem\[7\]\[1\]
*385 bram\.mem\[7\]\[2\]
*386 bram\.mem\[7\]\[3\]
*387 bram\.mem\[7\]\[4\]
*388 bram\.mem\[7\]\[5\]
*389 bram\.mem\[7\]\[6\]
*390 bram\.mem\[7\]\[7\]
*391 bram\.mem\[8\]\[0\]
*392 bram\.mem\[8\]\[1\]
*393 bram\.mem\[8\]\[2\]
*394 bram\.mem\[8\]\[3\]
*395 bram\.mem\[8\]\[4\]
*396 bram\.mem\[8\]\[5\]
*397 bram\.mem\[8\]\[6\]
*398 bram\.mem\[8\]\[7\]
*399 bram\.mem\[9\]\[0\]
*400 bram\.mem\[9\]\[1\]
*401 bram\.mem\[9\]\[2\]
*402 bram\.mem\[9\]\[3\]
*403 bram\.mem\[9\]\[4\]
*404 bram\.mem\[9\]\[5\]
*405 bram\.mem\[9\]\[6\]
*406 bram\.mem\[9\]\[7\]
*407 bram\.raddr\[0\]
*408 bram\.raddr\[1\]
*409 bram\.raddr\[2\]
*410 bram\.raddr\[3\]
*411 bram\.waddr\[0\]
*412 bram\.waddr\[1\]
*413 bram\.waddr\[2\]
*414 bram\.waddr\[3\]
*415 clknet_0_rclk
*416 clknet_0_wclk
*417 clknet_1_0__leaf_rclk
*418 clknet_1_1__leaf_rclk
*419 clknet_4_0_0_wclk
*420 clknet_4_10_0_wclk
*421 clknet_4_11_0_wclk
*422 clknet_4_12_0_wclk
*423 clknet_4_13_0_wclk
*424 clknet_4_14_0_wclk
*425 clknet_4_15_0_wclk
*426 clknet_4_1_0_wclk
*427 clknet_4_2_0_wclk
*428 clknet_4_3_0_wclk
*429 clknet_4_4_0_wclk
*430 clknet_4_5_0_wclk
*431 clknet_4_6_0_wclk
*432 clknet_4_7_0_wclk
*433 clknet_4_8_0_wclk
*434 clknet_4_9_0_wclk
*435 net1
*436 net10
*437 net11
*438 net12
*439 net13
*440 net14
*441 net15
*442 net16
*443 net17
*444 net18
*445 net19
*446 net2
*447 net20
*448 net21
*449 net22
*450 net23
*451 net3
*452 net4
*453 net5
*454 net6
*455 net7
*456 net8
*457 net9
*458 r_ptr_bin\[4\]
*459 r_ptr_gray\[0\]
*460 r_ptr_gray\[1\]
*461 r_ptr_gray\[2\]
*462 r_ptr_gray\[3\]
*463 r_ptr_gray_sync\[0\]
*464 r_ptr_gray_sync\[1\]
*465 r_ptr_gray_sync\[2\]
*466 r_ptr_gray_sync\[3\]
*467 r_ptr_gray_sync\[4\]
*468 sync_grptr_to_wr\.q1\[0\]
*469 sync_grptr_to_wr\.q1\[1\]
*470 sync_grptr_to_wr\.q1\[2\]
*471 sync_grptr_to_wr\.q1\[3\]
*472 sync_grptr_to_wr\.q1\[4\]
*473 sync_gwptr_to_rd\.d1\[0\]
*474 sync_gwptr_to_rd\.d1\[1\]
*475 sync_gwptr_to_rd\.d1\[2\]
*476 sync_gwptr_to_rd\.d1\[3\]
*477 sync_gwptr_to_rd\.d1\[4\]
*478 sync_gwptr_to_rd\.q1\[0\]
*479 sync_gwptr_to_rd\.q1\[1\]
*480 sync_gwptr_to_rd\.q1\[2\]
*481 sync_gwptr_to_rd\.q1\[3\]
*482 sync_gwptr_to_rd\.q1\[4\]
*483 sync_gwptr_to_rd\.q2\[0\]
*484 sync_gwptr_to_rd\.q2\[1\]
*485 sync_gwptr_to_rd\.q2\[2\]
*486 sync_gwptr_to_rd\.q2\[3\]
*487 sync_gwptr_to_rd\.q2\[4\]
*488 u_rptr_handler\.b_rptr_next\[0\]
*489 u_rptr_handler\.b_rptr_next\[1\]
*490 u_rptr_handler\.b_rptr_next\[2\]
*491 u_rptr_handler\.b_rptr_next\[3\]
*492 u_rptr_handler\.b_rptr_next\[4\]
*493 u_rptr_handler\.g_rptr_next\[0\]
*494 u_rptr_handler\.g_rptr_next\[1\]
*495 u_rptr_handler\.g_rptr_next\[2\]
*496 u_rptr_handler\.g_rptr_next\[3\]
*497 u_wrptr_handler\.b_wptr_next\[0\]
*498 u_wrptr_handler\.b_wptr_next\[1\]
*499 u_wrptr_handler\.b_wptr_next\[2\]
*500 u_wrptr_handler\.b_wptr_next\[3\]
*501 u_wrptr_handler\.b_wptr_next\[4\]
*502 u_wrptr_handler\.g_wptr_next\[0\]
*503 u_wrptr_handler\.g_wptr_next\[1\]
*504 u_wrptr_handler\.g_wptr_next\[2\]
*505 u_wrptr_handler\.g_wptr_next\[3\]
*506 FILLER_0_107
*507 FILLER_0_111
*508 FILLER_0_113
*509 FILLER_0_121
*510 FILLER_0_133
*511 FILLER_0_139
*512 FILLER_0_15
*513 FILLER_0_150
*514 FILLER_0_162
*515 FILLER_0_185
*516 FILLER_0_193
*517 FILLER_0_197
*518 FILLER_0_209
*519 FILLER_0_221
*520 FILLER_0_225
*521 FILLER_0_237
*522 FILLER_0_249
*523 FILLER_0_253
*524 FILLER_0_27
*525 FILLER_0_29
*526 FILLER_0_3
*527 FILLER_0_37
*528 FILLER_0_44
*529 FILLER_0_57
*530 FILLER_0_76
*531 FILLER_0_94
*532 FILLER_10_102
*533 FILLER_10_112
*534 FILLER_10_120
*535 FILLER_10_132
*536 FILLER_10_15
*537 FILLER_10_150
*538 FILLER_10_168
*539 FILLER_10_178
*540 FILLER_10_190
*541 FILLER_10_197
*542 FILLER_10_209
*543 FILLER_10_221
*544 FILLER_10_233
*545 FILLER_10_245
*546 FILLER_10_251
*547 FILLER_10_253
*548 FILLER_10_27
*549 FILLER_10_29
*550 FILLER_10_3
*551 FILLER_10_46
*552 FILLER_10_58
*553 FILLER_10_70
*554 FILLER_10_82
*555 FILLER_10_94
*556 FILLER_11_106
*557 FILLER_11_113
*558 FILLER_11_125
*559 FILLER_11_137
*560 FILLER_11_149
*561 FILLER_11_166
*562 FILLER_11_187
*563 FILLER_11_199
*564 FILLER_11_211
*565 FILLER_11_223
*566 FILLER_11_225
*567 FILLER_11_237
*568 FILLER_11_245
*569 FILLER_11_25
*570 FILLER_11_3
*571 FILLER_11_54
*572 FILLER_11_57
*573 FILLER_11_70
*574 FILLER_11_83
*575 FILLER_11_95
*576 FILLER_12_105
*577 FILLER_12_11
*578 FILLER_12_123
*579 FILLER_12_159
*580 FILLER_12_192
*581 FILLER_12_197
*582 FILLER_12_209
*583 FILLER_12_221
*584 FILLER_12_233
*585 FILLER_12_245
*586 FILLER_12_251
*587 FILLER_12_253
*588 FILLER_12_29
*589 FILLER_12_3
*590 FILLER_12_51
*591 FILLER_12_85
*592 FILLER_13_11
*593 FILLER_13_122
*594 FILLER_13_160
*595 FILLER_13_169
*596 FILLER_13_210
*597 FILLER_13_222
*598 FILLER_13_225
*599 FILLER_13_237
*600 FILLER_13_249
*601 FILLER_13_3
*602 FILLER_13_51
*603 FILLER_13_55
*604 FILLER_13_57
*605 FILLER_13_63
*606 FILLER_13_94
*607 FILLER_14_130
*608 FILLER_14_141
*609 FILLER_14_15
*610 FILLER_14_163
*611 FILLER_14_194
*612 FILLER_14_201
*613 FILLER_14_207
*614 FILLER_14_248
*615 FILLER_14_253
*616 FILLER_14_27
*617 FILLER_14_29
*618 FILLER_14_3
*619 FILLER_14_37
*620 FILLER_14_65
*621 FILLER_14_82
*622 FILLER_15_107
*623 FILLER_15_111
*624 FILLER_15_122
*625 FILLER_15_128
*626 FILLER_15_15
*627 FILLER_15_154
*628 FILLER_15_160
*629 FILLER_15_189
*630 FILLER_15_225
*631 FILLER_15_250
*632 FILLER_15_27
*633 FILLER_15_3
*634 FILLER_15_35
*635 FILLER_15_66
*636 FILLER_15_87
*637 FILLER_16_117
*638 FILLER_16_128
*639 FILLER_16_141
*640 FILLER_16_160
*641 FILLER_16_168
*642 FILLER_16_178
*643 FILLER_16_186
*644 FILLER_16_192
*645 FILLER_16_197
*646 FILLER_16_207
*647 FILLER_16_219
*648 FILLER_16_23
*649 FILLER_16_231
*650 FILLER_16_251
*651 FILLER_16_253
*652 FILLER_16_27
*653 FILLER_16_3
*654 FILLER_16_45
*655 FILLER_16_51
*656 FILLER_16_68
*657 FILLER_16_83
*658 FILLER_16_85
*659 FILLER_16_97
*660 FILLER_17_109
*661 FILLER_17_11
*662 FILLER_17_113
*663 FILLER_17_131
*664 FILLER_17_143
*665 FILLER_17_213
*666 FILLER_17_221
*667 FILLER_17_225
*668 FILLER_17_247
*669 FILLER_17_255
*670 FILLER_17_28
*671 FILLER_17_3
*672 FILLER_17_50
*673 FILLER_17_66
*674 FILLER_17_85
*675 FILLER_18_139
*676 FILLER_18_141
*677 FILLER_18_149
*678 FILLER_18_195
*679 FILLER_18_240
*680 FILLER_18_249
*681 FILLER_18_253
*682 FILLER_18_3
*683 FILLER_18_50
*684 FILLER_18_85
*685 FILLER_18_9
*686 FILLER_19_109
*687 FILLER_19_113
*688 FILLER_19_146
*689 FILLER_19_15
*690 FILLER_19_165
*691 FILLER_19_182
*692 FILLER_19_202
*693 FILLER_19_214
*694 FILLER_19_222
*695 FILLER_19_225
*696 FILLER_19_233
*697 FILLER_19_251
*698 FILLER_19_27
*699 FILLER_19_3
*700 FILLER_19_35
*701 FILLER_19_45
*702 FILLER_19_53
*703 FILLER_19_57
*704 FILLER_19_65
*705 FILLER_19_91
*706 FILLER_19_99
*707 FILLER_1_108
*708 FILLER_1_129
*709 FILLER_1_148
*710 FILLER_1_15
*711 FILLER_1_156
*712 FILLER_1_166
*713 FILLER_1_185
*714 FILLER_1_197
*715 FILLER_1_209
*716 FILLER_1_221
*717 FILLER_1_225
*718 FILLER_1_237
*719 FILLER_1_249
*720 FILLER_1_27
*721 FILLER_1_3
*722 FILLER_1_39
*723 FILLER_1_57
*724 FILLER_20_109
*725 FILLER_20_117
*726 FILLER_20_129
*727 FILLER_20_137
*728 FILLER_20_141
*729 FILLER_20_15
*730 FILLER_20_153
*731 FILLER_20_157
*732 FILLER_20_180
*733 FILLER_20_184
*734 FILLER_20_193
*735 FILLER_20_197
*736 FILLER_20_209
*737 FILLER_20_221
*738 FILLER_20_227
*739 FILLER_20_248
*740 FILLER_20_253
*741 FILLER_20_27
*742 FILLER_20_3
*743 FILLER_20_38
*744 FILLER_20_46
*745 FILLER_20_65
*746 FILLER_20_80
*747 FILLER_20_85
*748 FILLER_20_97
*749 FILLER_21_101
*750 FILLER_21_109
*751 FILLER_21_113
*752 FILLER_21_125
*753 FILLER_21_133
*754 FILLER_21_145
*755 FILLER_21_15
*756 FILLER_21_169
*757 FILLER_21_181
*758 FILLER_21_210
*759 FILLER_21_222
*760 FILLER_21_252
*761 FILLER_21_256
*762 FILLER_21_3
*763 FILLER_21_37
*764 FILLER_21_49
*765 FILLER_21_55
*766 FILLER_21_57
*767 FILLER_21_69
*768 FILLER_21_81
*769 FILLER_21_89
*770 FILLER_22_102
*771 FILLER_22_114
*772 FILLER_22_150
*773 FILLER_22_154
*774 FILLER_22_174
*775 FILLER_22_197
*776 FILLER_22_214
*777 FILLER_22_226
*778 FILLER_22_24
*779 FILLER_22_242
*780 FILLER_22_250
*781 FILLER_22_253
*782 FILLER_22_29
*783 FILLER_22_3
*784 FILLER_22_47
*785 FILLER_22_66
*786 FILLER_22_7
*787 FILLER_22_76
*788 FILLER_22_85
*789 FILLER_23_122
*790 FILLER_23_139
*791 FILLER_23_202
*792 FILLER_23_225
*793 FILLER_23_23
*794 FILLER_23_251
*795 FILLER_23_3
*796 FILLER_23_46
*797 FILLER_23_57
*798 FILLER_23_63
*799 FILLER_24_118
*800 FILLER_24_135
*801 FILLER_24_139
*802 FILLER_24_162
*803 FILLER_24_168
*804 FILLER_24_202
*805 FILLER_24_24
*806 FILLER_24_250
*807 FILLER_24_253
*808 FILLER_24_29
*809 FILLER_24_3
*810 FILLER_24_35
*811 FILLER_24_45
*812 FILLER_24_56
*813 FILLER_24_76
*814 FILLER_24_85
*815 FILLER_25_109
*816 FILLER_25_113
*817 FILLER_25_123
*818 FILLER_25_15
*819 FILLER_25_165
*820 FILLER_25_169
*821 FILLER_25_182
*822 FILLER_25_204
*823 FILLER_25_216
*824 FILLER_25_225
*825 FILLER_25_237
*826 FILLER_25_256
*827 FILLER_25_26
*828 FILLER_25_3
*829 FILLER_25_50
*830 FILLER_25_57
*831 FILLER_25_61
*832 FILLER_25_83
*833 FILLER_25_87
*834 FILLER_26_109
*835 FILLER_26_113
*836 FILLER_26_120
*837 FILLER_26_124
*838 FILLER_26_134
*839 FILLER_26_164
*840 FILLER_26_172
*841 FILLER_26_184
*842 FILLER_26_197
*843 FILLER_26_219
*844 FILLER_26_231
*845 FILLER_26_25
*846 FILLER_26_253
*847 FILLER_26_29
*848 FILLER_26_3
*849 FILLER_26_64
*850 FILLER_26_79
*851 FILLER_26_83
*852 FILLER_26_91
*853 FILLER_26_99
*854 FILLER_27_104
*855 FILLER_27_113
*856 FILLER_27_125
*857 FILLER_27_137
*858 FILLER_27_150
*859 FILLER_27_167
*860 FILLER_27_175
*861 FILLER_27_205
*862 FILLER_27_217
*863 FILLER_27_223
*864 FILLER_27_225
*865 FILLER_27_248
*866 FILLER_27_256
*867 FILLER_27_26
*868 FILLER_27_3
*869 FILLER_27_48
*870 FILLER_27_66
*871 FILLER_27_9
*872 FILLER_27_92
*873 FILLER_28_104
*874 FILLER_28_119
*875 FILLER_28_131
*876 FILLER_28_139
*877 FILLER_28_15
*878 FILLER_28_157
*879 FILLER_28_175
*880 FILLER_28_192
*881 FILLER_28_197
*882 FILLER_28_203
*883 FILLER_28_244
*884 FILLER_28_253
*885 FILLER_28_27
*886 FILLER_28_3
*887 FILLER_28_45
*888 FILLER_28_79
*889 FILLER_28_83
*890 FILLER_28_85
*891 FILLER_28_93
*892 FILLER_29_105
*893 FILLER_29_111
*894 FILLER_29_129
*895 FILLER_29_15
*896 FILLER_29_185
*897 FILLER_29_197
*898 FILLER_29_209
*899 FILLER_29_221
*900 FILLER_29_225
*901 FILLER_29_229
*902 FILLER_29_250
*903 FILLER_29_256
*904 FILLER_29_27
*905 FILLER_29_3
*906 FILLER_29_39
*907 FILLER_29_51
*908 FILLER_29_55
*909 FILLER_29_66
*910 FILLER_29_84
*911 FILLER_29_88
*912 FILLER_2_15
*913 FILLER_2_150
*914 FILLER_2_193
*915 FILLER_2_197
*916 FILLER_2_209
*917 FILLER_2_221
*918 FILLER_2_233
*919 FILLER_2_245
*920 FILLER_2_251
*921 FILLER_2_253
*922 FILLER_2_27
*923 FILLER_2_29
*924 FILLER_2_3
*925 FILLER_2_35
*926 FILLER_2_85
*927 FILLER_2_91
*928 FILLER_30_138
*929 FILLER_30_141
*930 FILLER_30_177
*931 FILLER_30_189
*932 FILLER_30_195
*933 FILLER_30_217
*934 FILLER_30_228
*935 FILLER_30_24
*936 FILLER_30_253
*937 FILLER_30_29
*938 FILLER_30_3
*939 FILLER_30_41
*940 FILLER_30_85
*941 FILLER_31_107
*942 FILLER_31_111
*943 FILLER_31_129
*944 FILLER_31_137
*945 FILLER_31_148
*946 FILLER_31_160
*947 FILLER_31_169
*948 FILLER_31_181
*949 FILLER_31_193
*950 FILLER_31_215
*951 FILLER_31_22
*952 FILLER_31_223
*953 FILLER_31_225
*954 FILLER_31_231
*955 FILLER_31_243
*956 FILLER_31_28
*957 FILLER_31_3
*958 FILLER_31_45
*959 FILLER_31_53
*960 FILLER_31_57
*961 FILLER_31_63
*962 FILLER_31_89
*963 FILLER_31_97
*964 FILLER_32_118
*965 FILLER_32_126
*966 FILLER_32_133
*967 FILLER_32_139
*968 FILLER_32_141
*969 FILLER_32_149
*970 FILLER_32_159
*971 FILLER_32_171
*972 FILLER_32_179
*973 FILLER_32_191
*974 FILLER_32_195
*975 FILLER_32_50
*976 FILLER_32_63
*977 FILLER_32_75
*978 FILLER_32_83
*979 FILLER_32_85
*980 FILLER_32_97
*981 FILLER_33_108
*982 FILLER_33_113
*983 FILLER_33_125
*984 FILLER_33_138
*985 FILLER_33_166
*986 FILLER_33_169
*987 FILLER_33_200
*988 FILLER_33_22
*989 FILLER_33_225
*990 FILLER_33_229
*991 FILLER_33_251
*992 FILLER_33_3
*993 FILLER_33_33
*994 FILLER_33_44
*995 FILLER_33_66
*996 FILLER_33_78
*997 FILLER_33_90
*998 FILLER_33_98
*999 FILLER_34_109
*1000 FILLER_34_194
*1001 FILLER_34_197
*1002 FILLER_34_21
*1003 FILLER_34_239
*1004 FILLER_34_253
*1005 FILLER_34_27
*1006 FILLER_34_29
*1007 FILLER_34_33
*1008 FILLER_34_61
*1009 FILLER_34_83
*1010 FILLER_34_9
*1011 FILLER_34_91
*1012 FILLER_35_108
*1013 FILLER_35_143
*1014 FILLER_35_15
*1015 FILLER_35_167
*1016 FILLER_35_183
*1017 FILLER_35_206
*1018 FILLER_35_218
*1019 FILLER_35_225
*1020 FILLER_35_25
*1021 FILLER_35_3
*1022 FILLER_35_57
*1023 FILLER_36_107
*1024 FILLER_36_113
*1025 FILLER_36_136
*1026 FILLER_36_147
*1027 FILLER_36_153
*1028 FILLER_36_165
*1029 FILLER_36_176
*1030 FILLER_36_182
*1031 FILLER_36_195
*1032 FILLER_36_200
*1033 FILLER_36_246
*1034 FILLER_36_25
*1035 FILLER_36_253
*1036 FILLER_36_29
*1037 FILLER_36_3
*1038 FILLER_36_48
*1039 FILLER_36_94
*1040 FILLER_37_109
*1041 FILLER_37_136
*1042 FILLER_37_148
*1043 FILLER_37_160
*1044 FILLER_37_169
*1045 FILLER_37_194
*1046 FILLER_37_203
*1047 FILLER_37_215
*1048 FILLER_37_223
*1049 FILLER_37_225
*1050 FILLER_37_237
*1051 FILLER_37_249
*1052 FILLER_37_3
*1053 FILLER_37_54
*1054 FILLER_37_57
*1055 FILLER_37_69
*1056 FILLER_37_7
*1057 FILLER_37_77
*1058 FILLER_37_97
*1059 FILLER_38_111
*1060 FILLER_38_122
*1061 FILLER_38_134
*1062 FILLER_38_150
*1063 FILLER_38_202
*1064 FILLER_38_208
*1065 FILLER_38_22
*1066 FILLER_38_220
*1067 FILLER_38_241
*1068 FILLER_38_249
*1069 FILLER_38_253
*1070 FILLER_38_3
*1071 FILLER_38_38
*1072 FILLER_38_50
*1073 FILLER_38_63
*1074 FILLER_38_75
*1075 FILLER_38_85
*1076 FILLER_38_89
*1077 FILLER_38_99
*1078 FILLER_39_11
*1079 FILLER_39_122
*1080 FILLER_39_167
*1081 FILLER_39_178
*1082 FILLER_39_182
*1083 FILLER_39_219
*1084 FILLER_39_22
*1085 FILLER_39_223
*1086 FILLER_39_225
*1087 FILLER_39_237
*1088 FILLER_39_249
*1089 FILLER_39_3
*1090 FILLER_39_34
*1091 FILLER_39_46
*1092 FILLER_39_57
*1093 FILLER_39_79
*1094 FILLER_3_113
*1095 FILLER_3_117
*1096 FILLER_3_148
*1097 FILLER_3_15
*1098 FILLER_3_156
*1099 FILLER_3_190
*1100 FILLER_3_202
*1101 FILLER_3_214
*1102 FILLER_3_222
*1103 FILLER_3_225
*1104 FILLER_3_237
*1105 FILLER_3_249
*1106 FILLER_3_27
*1107 FILLER_3_3
*1108 FILLER_3_39
*1109 FILLER_3_78
*1110 FILLER_40_118
*1111 FILLER_40_137
*1112 FILLER_40_141
*1113 FILLER_40_174
*1114 FILLER_40_186
*1115 FILLER_40_192
*1116 FILLER_40_197
*1117 FILLER_40_201
*1118 FILLER_40_21
*1119 FILLER_40_248
*1120 FILLER_40_253
*1121 FILLER_40_27
*1122 FILLER_40_29
*1123 FILLER_40_41
*1124 FILLER_40_59
*1125 FILLER_40_81
*1126 FILLER_40_85
*1127 FILLER_40_9
*1128 FILLER_41_111
*1129 FILLER_41_113
*1130 FILLER_41_125
*1131 FILLER_41_143
*1132 FILLER_41_15
*1133 FILLER_41_155
*1134 FILLER_41_185
*1135 FILLER_41_197
*1136 FILLER_41_205
*1137 FILLER_41_210
*1138 FILLER_41_218
*1139 FILLER_41_225
*1140 FILLER_41_237
*1141 FILLER_41_249
*1142 FILLER_41_27
*1143 FILLER_41_3
*1144 FILLER_41_39
*1145 FILLER_41_51
*1146 FILLER_41_55
*1147 FILLER_41_57
*1148 FILLER_41_84
*1149 FILLER_42_107
*1150 FILLER_42_119
*1151 FILLER_42_123
*1152 FILLER_42_141
*1153 FILLER_42_15
*1154 FILLER_42_185
*1155 FILLER_42_193
*1156 FILLER_42_197
*1157 FILLER_42_209
*1158 FILLER_42_221
*1159 FILLER_42_233
*1160 FILLER_42_245
*1161 FILLER_42_251
*1162 FILLER_42_253
*1163 FILLER_42_27
*1164 FILLER_42_29
*1165 FILLER_42_3
*1166 FILLER_42_41
*1167 FILLER_42_63
*1168 FILLER_42_74
*1169 FILLER_42_82
*1170 FILLER_42_85
*1171 FILLER_43_109
*1172 FILLER_43_113
*1173 FILLER_43_137
*1174 FILLER_43_141
*1175 FILLER_43_146
*1176 FILLER_43_15
*1177 FILLER_43_153
*1178 FILLER_43_160
*1179 FILLER_43_167
*1180 FILLER_43_169
*1181 FILLER_43_174
*1182 FILLER_43_181
*1183 FILLER_43_191
*1184 FILLER_43_195
*1185 FILLER_43_197
*1186 FILLER_43_209
*1187 FILLER_43_221
*1188 FILLER_43_225
*1189 FILLER_43_237
*1190 FILLER_43_249
*1191 FILLER_43_253
*1192 FILLER_43_27
*1193 FILLER_43_29
*1194 FILLER_43_3
*1195 FILLER_43_41
*1196 FILLER_43_53
*1197 FILLER_43_57
*1198 FILLER_43_69
*1199 FILLER_43_81
*1200 FILLER_43_85
*1201 FILLER_43_97
*1202 FILLER_4_103
*1203 FILLER_4_113
*1204 FILLER_4_125
*1205 FILLER_4_137
*1206 FILLER_4_141
*1207 FILLER_4_15
*1208 FILLER_4_153
*1209 FILLER_4_165
*1210 FILLER_4_178
*1211 FILLER_4_190
*1212 FILLER_4_197
*1213 FILLER_4_209
*1214 FILLER_4_221
*1215 FILLER_4_233
*1216 FILLER_4_245
*1217 FILLER_4_251
*1218 FILLER_4_253
*1219 FILLER_4_27
*1220 FILLER_4_29
*1221 FILLER_4_3
*1222 FILLER_4_41
*1223 FILLER_4_58
*1224 FILLER_4_62
*1225 FILLER_4_72
*1226 FILLER_4_85
*1227 FILLER_4_97
*1228 FILLER_5_111
*1229 FILLER_5_113
*1230 FILLER_5_125
*1231 FILLER_5_137
*1232 FILLER_5_149
*1233 FILLER_5_15
*1234 FILLER_5_161
*1235 FILLER_5_167
*1236 FILLER_5_169
*1237 FILLER_5_181
*1238 FILLER_5_193
*1239 FILLER_5_205
*1240 FILLER_5_21
*1241 FILLER_5_217
*1242 FILLER_5_223
*1243 FILLER_5_225
*1244 FILLER_5_237
*1245 FILLER_5_249
*1246 FILLER_5_3
*1247 FILLER_5_38
*1248 FILLER_5_42
*1249 FILLER_5_52
*1250 FILLER_5_68
*1251 FILLER_5_80
*1252 FILLER_5_88
*1253 FILLER_5_99
*1254 FILLER_6_122
*1255 FILLER_6_126
*1256 FILLER_6_136
*1257 FILLER_6_141
*1258 FILLER_6_145
*1259 FILLER_6_15
*1260 FILLER_6_171
*1261 FILLER_6_183
*1262 FILLER_6_195
*1263 FILLER_6_197
*1264 FILLER_6_209
*1265 FILLER_6_221
*1266 FILLER_6_233
*1267 FILLER_6_245
*1268 FILLER_6_251
*1269 FILLER_6_253
*1270 FILLER_6_27
*1271 FILLER_6_29
*1272 FILLER_6_3
*1273 FILLER_6_69
*1274 FILLER_6_77
*1275 FILLER_6_85
*1276 FILLER_6_98
*1277 FILLER_7_113
*1278 FILLER_7_137
*1279 FILLER_7_15
*1280 FILLER_7_185
*1281 FILLER_7_197
*1282 FILLER_7_209
*1283 FILLER_7_221
*1284 FILLER_7_225
*1285 FILLER_7_237
*1286 FILLER_7_249
*1287 FILLER_7_3
*1288 FILLER_7_57
*1289 FILLER_7_95
*1290 FILLER_8_106
*1291 FILLER_8_138
*1292 FILLER_8_15
*1293 FILLER_8_152
*1294 FILLER_8_156
*1295 FILLER_8_187
*1296 FILLER_8_195
*1297 FILLER_8_197
*1298 FILLER_8_209
*1299 FILLER_8_221
*1300 FILLER_8_233
*1301 FILLER_8_245
*1302 FILLER_8_251
*1303 FILLER_8_253
*1304 FILLER_8_27
*1305 FILLER_8_29
*1306 FILLER_8_3
*1307 FILLER_8_53
*1308 FILLER_9_100
*1309 FILLER_9_113
*1310 FILLER_9_133
*1311 FILLER_9_139
*1312 FILLER_9_15
*1313 FILLER_9_164
*1314 FILLER_9_187
*1315 FILLER_9_199
*1316 FILLER_9_211
*1317 FILLER_9_223
*1318 FILLER_9_225
*1319 FILLER_9_237
*1320 FILLER_9_249
*1321 FILLER_9_27
*1322 FILLER_9_3
*1323 FILLER_9_37
*1324 FILLER_9_45
*1325 FILLER_9_57
*1326 FILLER_9_83
*1327 PHY_EDGE_ROW_0_Left_44
*1328 PHY_EDGE_ROW_0_Right_0
*1329 PHY_EDGE_ROW_10_Left_54
*1330 PHY_EDGE_ROW_10_Right_10
*1331 PHY_EDGE_ROW_11_Left_55
*1332 PHY_EDGE_ROW_11_Right_11
*1333 PHY_EDGE_ROW_12_Left_56
*1334 PHY_EDGE_ROW_12_Right_12
*1335 PHY_EDGE_ROW_13_Left_57
*1336 PHY_EDGE_ROW_13_Right_13
*1337 PHY_EDGE_ROW_14_Left_58
*1338 PHY_EDGE_ROW_14_Right_14
*1339 PHY_EDGE_ROW_15_Left_59
*1340 PHY_EDGE_ROW_15_Right_15
*1341 PHY_EDGE_ROW_16_Left_60
*1342 PHY_EDGE_ROW_16_Right_16
*1343 PHY_EDGE_ROW_17_Left_61
*1344 PHY_EDGE_ROW_17_Right_17
*1345 PHY_EDGE_ROW_18_Left_62
*1346 PHY_EDGE_ROW_18_Right_18
*1347 PHY_EDGE_ROW_19_Left_63
*1348 PHY_EDGE_ROW_19_Right_19
*1349 PHY_EDGE_ROW_1_Left_45
*1350 PHY_EDGE_ROW_1_Right_1
*1351 PHY_EDGE_ROW_20_Left_64
*1352 PHY_EDGE_ROW_20_Right_20
*1353 PHY_EDGE_ROW_21_Left_65
*1354 PHY_EDGE_ROW_21_Right_21
*1355 PHY_EDGE_ROW_22_Left_66
*1356 PHY_EDGE_ROW_22_Right_22
*1357 PHY_EDGE_ROW_23_Left_67
*1358 PHY_EDGE_ROW_23_Right_23
*1359 PHY_EDGE_ROW_24_Left_68
*1360 PHY_EDGE_ROW_24_Right_24
*1361 PHY_EDGE_ROW_25_Left_69
*1362 PHY_EDGE_ROW_25_Right_25
*1363 PHY_EDGE_ROW_26_Left_70
*1364 PHY_EDGE_ROW_26_Right_26
*1365 PHY_EDGE_ROW_27_Left_71
*1366 PHY_EDGE_ROW_27_Right_27
*1367 PHY_EDGE_ROW_28_Left_72
*1368 PHY_EDGE_ROW_28_Right_28
*1369 PHY_EDGE_ROW_29_Left_73
*1370 PHY_EDGE_ROW_29_Right_29
*1371 PHY_EDGE_ROW_2_Left_46
*1372 PHY_EDGE_ROW_2_Right_2
*1373 PHY_EDGE_ROW_30_Left_74
*1374 PHY_EDGE_ROW_30_Right_30
*1375 PHY_EDGE_ROW_31_Left_75
*1376 PHY_EDGE_ROW_31_Right_31
*1377 PHY_EDGE_ROW_32_Left_76
*1378 PHY_EDGE_ROW_32_Right_32
*1379 PHY_EDGE_ROW_33_Left_77
*1380 PHY_EDGE_ROW_33_Right_33
*1381 PHY_EDGE_ROW_34_Left_78
*1382 PHY_EDGE_ROW_34_Right_34
*1383 PHY_EDGE_ROW_35_Left_79
*1384 PHY_EDGE_ROW_35_Right_35
*1385 PHY_EDGE_ROW_36_Left_80
*1386 PHY_EDGE_ROW_36_Right_36
*1387 PHY_EDGE_ROW_37_Left_81
*1388 PHY_EDGE_ROW_37_Right_37
*1389 PHY_EDGE_ROW_38_Left_82
*1390 PHY_EDGE_ROW_38_Right_38
*1391 PHY_EDGE_ROW_39_Left_83
*1392 PHY_EDGE_ROW_39_Right_39
*1393 PHY_EDGE_ROW_3_Left_47
*1394 PHY_EDGE_ROW_3_Right_3
*1395 PHY_EDGE_ROW_40_Left_84
*1396 PHY_EDGE_ROW_40_Right_40
*1397 PHY_EDGE_ROW_41_Left_85
*1398 PHY_EDGE_ROW_41_Right_41
*1399 PHY_EDGE_ROW_42_Left_86
*1400 PHY_EDGE_ROW_42_Right_42
*1401 PHY_EDGE_ROW_43_Left_87
*1402 PHY_EDGE_ROW_43_Right_43
*1403 PHY_EDGE_ROW_4_Left_48
*1404 PHY_EDGE_ROW_4_Right_4
*1405 PHY_EDGE_ROW_5_Left_49
*1406 PHY_EDGE_ROW_5_Right_5
*1407 PHY_EDGE_ROW_6_Left_50
*1408 PHY_EDGE_ROW_6_Right_6
*1409 PHY_EDGE_ROW_7_Left_51
*1410 PHY_EDGE_ROW_7_Right_7
*1411 PHY_EDGE_ROW_8_Left_52
*1412 PHY_EDGE_ROW_8_Right_8
*1413 PHY_EDGE_ROW_9_Left_53
*1414 PHY_EDGE_ROW_9_Right_9
*1415 TAP_TAPCELL_ROW_0_88
*1416 TAP_TAPCELL_ROW_0_89
*1417 TAP_TAPCELL_ROW_0_90
*1418 TAP_TAPCELL_ROW_0_91
*1419 TAP_TAPCELL_ROW_0_92
*1420 TAP_TAPCELL_ROW_0_93
*1421 TAP_TAPCELL_ROW_0_94
*1422 TAP_TAPCELL_ROW_0_95
*1423 TAP_TAPCELL_ROW_0_96
*1424 TAP_TAPCELL_ROW_10_137
*1425 TAP_TAPCELL_ROW_10_138
*1426 TAP_TAPCELL_ROW_10_139
*1427 TAP_TAPCELL_ROW_10_140
*1428 TAP_TAPCELL_ROW_10_141
*1429 TAP_TAPCELL_ROW_11_142
*1430 TAP_TAPCELL_ROW_11_143
*1431 TAP_TAPCELL_ROW_11_144
*1432 TAP_TAPCELL_ROW_11_145
*1433 TAP_TAPCELL_ROW_12_146
*1434 TAP_TAPCELL_ROW_12_147
*1435 TAP_TAPCELL_ROW_12_148
*1436 TAP_TAPCELL_ROW_12_149
*1437 TAP_TAPCELL_ROW_12_150
*1438 TAP_TAPCELL_ROW_13_151
*1439 TAP_TAPCELL_ROW_13_152
*1440 TAP_TAPCELL_ROW_13_153
*1441 TAP_TAPCELL_ROW_13_154
*1442 TAP_TAPCELL_ROW_14_155
*1443 TAP_TAPCELL_ROW_14_156
*1444 TAP_TAPCELL_ROW_14_157
*1445 TAP_TAPCELL_ROW_14_158
*1446 TAP_TAPCELL_ROW_14_159
*1447 TAP_TAPCELL_ROW_15_160
*1448 TAP_TAPCELL_ROW_15_161
*1449 TAP_TAPCELL_ROW_15_162
*1450 TAP_TAPCELL_ROW_15_163
*1451 TAP_TAPCELL_ROW_16_164
*1452 TAP_TAPCELL_ROW_16_165
*1453 TAP_TAPCELL_ROW_16_166
*1454 TAP_TAPCELL_ROW_16_167
*1455 TAP_TAPCELL_ROW_16_168
*1456 TAP_TAPCELL_ROW_17_169
*1457 TAP_TAPCELL_ROW_17_170
*1458 TAP_TAPCELL_ROW_17_171
*1459 TAP_TAPCELL_ROW_17_172
*1460 TAP_TAPCELL_ROW_18_173
*1461 TAP_TAPCELL_ROW_18_174
*1462 TAP_TAPCELL_ROW_18_175
*1463 TAP_TAPCELL_ROW_18_176
*1464 TAP_TAPCELL_ROW_18_177
*1465 TAP_TAPCELL_ROW_19_178
*1466 TAP_TAPCELL_ROW_19_179
*1467 TAP_TAPCELL_ROW_19_180
*1468 TAP_TAPCELL_ROW_19_181
*1469 TAP_TAPCELL_ROW_1_100
*1470 TAP_TAPCELL_ROW_1_97
*1471 TAP_TAPCELL_ROW_1_98
*1472 TAP_TAPCELL_ROW_1_99
*1473 TAP_TAPCELL_ROW_20_182
*1474 TAP_TAPCELL_ROW_20_183
*1475 TAP_TAPCELL_ROW_20_184
*1476 TAP_TAPCELL_ROW_20_185
*1477 TAP_TAPCELL_ROW_20_186
*1478 TAP_TAPCELL_ROW_21_187
*1479 TAP_TAPCELL_ROW_21_188
*1480 TAP_TAPCELL_ROW_21_189
*1481 TAP_TAPCELL_ROW_21_190
*1482 TAP_TAPCELL_ROW_22_191
*1483 TAP_TAPCELL_ROW_22_192
*1484 TAP_TAPCELL_ROW_22_193
*1485 TAP_TAPCELL_ROW_22_194
*1486 TAP_TAPCELL_ROW_22_195
*1487 TAP_TAPCELL_ROW_23_196
*1488 TAP_TAPCELL_ROW_23_197
*1489 TAP_TAPCELL_ROW_23_198
*1490 TAP_TAPCELL_ROW_23_199
*1491 TAP_TAPCELL_ROW_24_200
*1492 TAP_TAPCELL_ROW_24_201
*1493 TAP_TAPCELL_ROW_24_202
*1494 TAP_TAPCELL_ROW_24_203
*1495 TAP_TAPCELL_ROW_24_204
*1496 TAP_TAPCELL_ROW_25_205
*1497 TAP_TAPCELL_ROW_25_206
*1498 TAP_TAPCELL_ROW_25_207
*1499 TAP_TAPCELL_ROW_25_208
*1500 TAP_TAPCELL_ROW_26_209
*1501 TAP_TAPCELL_ROW_26_210
*1502 TAP_TAPCELL_ROW_26_211
*1503 TAP_TAPCELL_ROW_26_212
*1504 TAP_TAPCELL_ROW_26_213
*1505 TAP_TAPCELL_ROW_27_214
*1506 TAP_TAPCELL_ROW_27_215
*1507 TAP_TAPCELL_ROW_27_216
*1508 TAP_TAPCELL_ROW_27_217
*1509 TAP_TAPCELL_ROW_28_218
*1510 TAP_TAPCELL_ROW_28_219
*1511 TAP_TAPCELL_ROW_28_220
*1512 TAP_TAPCELL_ROW_28_221
*1513 TAP_TAPCELL_ROW_28_222
*1514 TAP_TAPCELL_ROW_29_223
*1515 TAP_TAPCELL_ROW_29_224
*1516 TAP_TAPCELL_ROW_29_225
*1517 TAP_TAPCELL_ROW_29_226
*1518 TAP_TAPCELL_ROW_2_101
*1519 TAP_TAPCELL_ROW_2_102
*1520 TAP_TAPCELL_ROW_2_103
*1521 TAP_TAPCELL_ROW_2_104
*1522 TAP_TAPCELL_ROW_2_105
*1523 TAP_TAPCELL_ROW_30_227
*1524 TAP_TAPCELL_ROW_30_228
*1525 TAP_TAPCELL_ROW_30_229
*1526 TAP_TAPCELL_ROW_30_230
*1527 TAP_TAPCELL_ROW_30_231
*1528 TAP_TAPCELL_ROW_31_232
*1529 TAP_TAPCELL_ROW_31_233
*1530 TAP_TAPCELL_ROW_31_234
*1531 TAP_TAPCELL_ROW_31_235
*1532 TAP_TAPCELL_ROW_32_236
*1533 TAP_TAPCELL_ROW_32_237
*1534 TAP_TAPCELL_ROW_32_238
*1535 TAP_TAPCELL_ROW_32_239
*1536 TAP_TAPCELL_ROW_32_240
*1537 TAP_TAPCELL_ROW_33_241
*1538 TAP_TAPCELL_ROW_33_242
*1539 TAP_TAPCELL_ROW_33_243
*1540 TAP_TAPCELL_ROW_33_244
*1541 TAP_TAPCELL_ROW_34_245
*1542 TAP_TAPCELL_ROW_34_246
*1543 TAP_TAPCELL_ROW_34_247
*1544 TAP_TAPCELL_ROW_34_248
*1545 TAP_TAPCELL_ROW_34_249
*1546 TAP_TAPCELL_ROW_35_250
*1547 TAP_TAPCELL_ROW_35_251
*1548 TAP_TAPCELL_ROW_35_252
*1549 TAP_TAPCELL_ROW_35_253
*1550 TAP_TAPCELL_ROW_36_254
*1551 TAP_TAPCELL_ROW_36_255
*1552 TAP_TAPCELL_ROW_36_256
*1553 TAP_TAPCELL_ROW_36_257
*1554 TAP_TAPCELL_ROW_36_258
*1555 TAP_TAPCELL_ROW_37_259
*1556 TAP_TAPCELL_ROW_37_260
*1557 TAP_TAPCELL_ROW_37_261
*1558 TAP_TAPCELL_ROW_37_262
*1559 TAP_TAPCELL_ROW_38_263
*1560 TAP_TAPCELL_ROW_38_264
*1561 TAP_TAPCELL_ROW_38_265
*1562 TAP_TAPCELL_ROW_38_266
*1563 TAP_TAPCELL_ROW_38_267
*1564 TAP_TAPCELL_ROW_39_268
*1565 TAP_TAPCELL_ROW_39_269
*1566 TAP_TAPCELL_ROW_39_270
*1567 TAP_TAPCELL_ROW_39_271
*1568 TAP_TAPCELL_ROW_3_106
*1569 TAP_TAPCELL_ROW_3_107
*1570 TAP_TAPCELL_ROW_3_108
*1571 TAP_TAPCELL_ROW_3_109
*1572 TAP_TAPCELL_ROW_40_272
*1573 TAP_TAPCELL_ROW_40_273
*1574 TAP_TAPCELL_ROW_40_274
*1575 TAP_TAPCELL_ROW_40_275
*1576 TAP_TAPCELL_ROW_40_276
*1577 TAP_TAPCELL_ROW_41_277
*1578 TAP_TAPCELL_ROW_41_278
*1579 TAP_TAPCELL_ROW_41_279
*1580 TAP_TAPCELL_ROW_41_280
*1581 TAP_TAPCELL_ROW_42_281
*1582 TAP_TAPCELL_ROW_42_282
*1583 TAP_TAPCELL_ROW_42_283
*1584 TAP_TAPCELL_ROW_42_284
*1585 TAP_TAPCELL_ROW_42_285
*1586 TAP_TAPCELL_ROW_43_286
*1587 TAP_TAPCELL_ROW_43_287
*1588 TAP_TAPCELL_ROW_43_288
*1589 TAP_TAPCELL_ROW_43_289
*1590 TAP_TAPCELL_ROW_43_290
*1591 TAP_TAPCELL_ROW_43_291
*1592 TAP_TAPCELL_ROW_43_292
*1593 TAP_TAPCELL_ROW_43_293
*1594 TAP_TAPCELL_ROW_43_294
*1595 TAP_TAPCELL_ROW_4_110
*1596 TAP_TAPCELL_ROW_4_111
*1597 TAP_TAPCELL_ROW_4_112
*1598 TAP_TAPCELL_ROW_4_113
*1599 TAP_TAPCELL_ROW_4_114
*1600 TAP_TAPCELL_ROW_5_115
*1601 TAP_TAPCELL_ROW_5_116
*1602 TAP_TAPCELL_ROW_5_117
*1603 TAP_TAPCELL_ROW_5_118
*1604 TAP_TAPCELL_ROW_6_119
*1605 TAP_TAPCELL_ROW_6_120
*1606 TAP_TAPCELL_ROW_6_121
*1607 TAP_TAPCELL_ROW_6_122
*1608 TAP_TAPCELL_ROW_6_123
*1609 TAP_TAPCELL_ROW_7_124
*1610 TAP_TAPCELL_ROW_7_125
*1611 TAP_TAPCELL_ROW_7_126
*1612 TAP_TAPCELL_ROW_7_127
*1613 TAP_TAPCELL_ROW_8_128
*1614 TAP_TAPCELL_ROW_8_129
*1615 TAP_TAPCELL_ROW_8_130
*1616 TAP_TAPCELL_ROW_8_131
*1617 TAP_TAPCELL_ROW_8_132
*1618 TAP_TAPCELL_ROW_9_133
*1619 TAP_TAPCELL_ROW_9_134
*1620 TAP_TAPCELL_ROW_9_135
*1621 TAP_TAPCELL_ROW_9_136
*1622 _252_
*1623 _253_
*1624 _254_
*1625 _255_
*1626 _256_
*1627 _257_
*1628 _258_
*1629 _259_
*1630 _260_
*1631 _261_
*1632 _262_
*1633 _263_
*1634 _264_
*1635 _265_
*1636 _266_
*1637 _267_
*1638 _268_
*1639 _269_
*1640 _270_
*1641 _271_
*1642 _272_
*1643 _273_
*1644 _274_
*1645 _275_
*1646 _276_
*1647 _277_
*1648 _278_
*1649 _279_
*1650 _280_
*1651 _281_
*1652 _282_
*1653 _283_
*1654 _284_
*1655 _285_
*1656 _286_
*1657 _287_
*1658 _288_
*1659 _289_
*1660 _290_
*1661 _291_
*1662 _292_
*1663 _293_
*1664 _294_
*1665 _295_
*1666 _296_
*1667 _297_
*1668 _298_
*1669 _299_
*1670 _300_
*1671 _301_
*1672 _302_
*1673 _303_
*1674 _304_
*1675 _305_
*1676 _306_
*1677 _307_
*1678 _308_
*1679 _309_
*1680 _310_
*1681 _311_
*1682 _312_
*1683 _313_
*1684 _314_
*1685 _315_
*1686 _316_
*1687 _317_
*1688 _318_
*1689 _319_
*1690 _320_
*1691 _321_
*1692 _322_
*1693 _323_
*1694 _324_
*1695 _325_
*1696 _326_
*1697 _327_
*1698 _328_
*1699 _329_
*1700 _330_
*1701 _331_
*1702 _332_
*1703 _333_
*1704 _334_
*1705 _335_
*1706 _336_
*1707 _337_
*1708 _338_
*1709 _339_
*1710 _340_
*1711 _341_
*1712 _342_
*1713 _343_
*1714 _344_
*1715 _345_
*1716 _346_
*1717 _347_
*1718 _348_
*1719 _349_
*1720 _350_
*1721 _351_
*1722 _352_
*1723 _353_
*1724 _354_
*1725 _355_
*1726 _356_
*1727 _357_
*1728 _358_
*1729 _359_
*1730 _360_
*1731 _361_
*1732 _362_
*1733 _363_
*1734 _364_
*1735 _365_
*1736 _366_
*1737 _367_
*1738 _368_
*1739 _369_
*1740 _370_
*1741 _371_
*1742 _372_
*1743 _373_
*1744 _374_
*1745 _375_
*1746 _376_
*1747 _377_
*1748 _378_
*1749 _379_
*1750 _380_
*1751 _381_
*1752 _382_
*1753 _383_
*1754 _384_
*1755 _385_
*1756 _386_
*1757 _387_
*1758 _388_
*1759 _389_
*1760 _390_
*1761 _391_
*1762 _392_
*1763 _393_
*1764 _394_
*1765 _395_
*1766 _396_
*1767 _397_
*1768 _398_
*1769 _399_
*1770 _400_
*1771 _401_
*1772 _402_
*1773 _403_
*1774 _404_
*1775 _405_
*1776 _406_
*1777 _407_
*1778 _408_
*1779 _409_
*1780 _410_
*1781 _411_
*1782 _412_
*1783 _413_
*1784 _414_
*1785 _415_
*1786 _416_
*1787 _417_
*1788 _418_
*1789 _419_
*1790 _420_
*1791 _421_
*1792 _422_
*1793 _423_
*1794 _424_
*1795 _425_
*1796 _426_
*1797 _427_
*1798 _428_
*1799 _429_
*1800 _430_
*1801 _431_
*1802 _432_
*1803 _433_
*1804 _434_
*1805 _435_
*1806 _436_
*1807 _437_
*1808 _438_
*1809 _439_
*1810 _440_
*1811 _441_
*1812 _442_
*1813 _443_
*1814 _444_
*1815 _445_
*1816 _446_
*1817 _447_
*1818 _448_
*1819 _449_
*1820 _450_
*1821 _451_
*1822 _452_
*1823 _453_
*1824 _454_
*1825 _455_
*1826 _456_
*1827 _457_
*1828 _458_
*1829 _459_
*1830 _460_
*1831 _461_
*1832 _462_
*1833 _463_
*1834 _464_
*1835 _465_
*1836 _466_
*1837 _467_
*1838 _468_
*1839 _469_
*1840 _470_
*1841 _471_
*1842 _472_
*1843 _473_
*1844 _474_
*1845 _475_
*1846 _476_
*1847 _477_
*1848 _478_
*1849 _479_
*1850 _480_
*1851 _481_
*1852 _482_
*1853 _483_
*1854 _484_
*1855 _485_
*1856 _486_
*1857 _487_
*1858 _488_
*1859 _489_
*1860 _490_
*1861 _491_
*1862 _492_
*1863 _493_
*1864 _494_
*1865 _495_
*1866 _496_
*1867 _497_
*1868 _498_
*1869 _499_
*1870 _500_
*1871 _501_
*1872 _502_
*1873 _503_
*1874 _504_
*1875 _505_
*1876 _506_
*1877 _507_
*1878 _508_
*1879 _509_
*1880 _510_
*1881 _511_
*1882 _512_
*1883 _513_
*1884 _514_
*1885 _515_
*1886 _516_
*1887 _517_
*1888 _518_
*1889 _519_
*1890 _520_
*1891 _521_
*1892 _522_
*1893 _523_
*1894 _524_
*1895 _525_
*1896 _526_
*1897 _527_
*1898 _528_
*1899 _529_
*1900 _530_
*1901 _531_
*1902 _532_
*1903 _533_
*1904 _534_
*1905 _535_
*1906 _536_
*1907 _537_
*1908 _538_
*1909 _539_
*1910 _540_
*1911 _541_
*1912 _542_
*1913 _543_
*1914 _544_
*1915 _545_
*1916 _546_
*1917 _547_
*1918 _548_
*1919 _549_
*1920 _550_
*1921 _551_
*1922 _552_
*1923 _553_
*1924 _554_
*1925 _555_
*1926 _556_
*1927 _557_
*1928 _558_
*1929 _559_
*1930 _560_
*1931 _561_
*1932 _562_
*1933 _563_
*1934 _564_
*1935 _565_
*1936 _566_
*1937 _567_
*1938 _568_
*1939 _569_
*1940 _570_
*1941 _571_
*1942 _572_
*1943 _573_
*1944 _574_
*1945 _575_
*1946 _576_
*1947 _577_
*1948 _578_
*1949 _579_
*1950 _580_
*1951 _581_
*1952 _582_
*1953 _583_
*1954 _584_
*1955 _585_
*1956 _586_
*1957 _587_
*1958 _588_
*1959 _589_
*1960 _590_
*1961 _591_
*1962 _592_
*1963 _593_
*1964 _594_
*1965 _595_
*1966 _596_
*1967 _597_
*1968 _598_
*1969 _599_
*1970 _600_
*1971 _601_
*1972 _602_
*1973 _603_
*1974 _604_
*1975 _605_
*1976 _606_
*1977 _607_
*1978 _608_
*1979 _609_
*1980 _610_
*1981 _611_
*1982 _612_
*1983 _613_
*1984 _614_
*1985 _615_
*1986 _616_
*1987 _617_
*1988 _618_
*1989 _619_
*1990 _620_
*1991 _621_
*1992 _622_
*1993 _623_
*1994 _624_
*1995 _625_
*1996 _626_
*1997 _627_
*1998 _628_
*1999 _629_
*2000 _630_
*2001 _631_
*2002 _632_
*2003 _633_
*2004 _634_
*2005 _635_
*2006 _636_
*2007 _637_
*2008 _638_
*2009 _639_
*2010 _640_
*2011 _641_
*2012 _642_
*2013 _643_
*2014 _644_
*2015 _645_
*2016 _646_
*2017 _647_
*2018 _648_
*2019 _649_
*2020 _650_
*2021 _651_
*2022 _652_
*2023 _653_
*2024 _654_
*2025 _655_
*2026 _656_
*2027 _657_
*2028 _658_
*2029 _659_
*2030 _660_
*2031 _661_
*2032 _662_
*2033 _663_
*2034 _664_
*2035 _665_
*2036 _666_
*2037 _667_
*2038 _668_
*2039 _669_
*2040 _670_
*2041 _671_
*2042 _672_
*2043 _673_
*2044 _674_
*2045 _675_
*2046 _676_
*2047 _677_
*2048 _678_
*2049 _679_
*2050 _680_
*2051 _681_
*2052 _682_
*2053 _683_
*2054 _684_
*2055 _685_
*2056 _686_
*2057 _687_
*2058 _688_
*2059 _689_
*2060 _690_
*2061 _691_
*2062 _692_
*2063 _693_
*2064 _694_
*2065 _695_
*2066 _696_
*2067 _697_
*2068 clkbuf_0_rclk
*2069 clkbuf_0_wclk
*2070 clkbuf_1_0__f_rclk
*2071 clkbuf_1_1__f_rclk
*2072 clkbuf_4_0_0_wclk
*2073 clkbuf_4_10_0_wclk
*2074 clkbuf_4_11_0_wclk
*2075 clkbuf_4_12_0_wclk
*2076 clkbuf_4_13_0_wclk
*2077 clkbuf_4_14_0_wclk
*2078 clkbuf_4_15_0_wclk
*2079 clkbuf_4_1_0_wclk
*2080 clkbuf_4_2_0_wclk
*2081 clkbuf_4_3_0_wclk
*2082 clkbuf_4_4_0_wclk
*2083 clkbuf_4_5_0_wclk
*2084 clkbuf_4_6_0_wclk
*2085 clkbuf_4_7_0_wclk
*2086 clkbuf_4_8_0_wclk
*2087 clkbuf_4_9_0_wclk
*2088 clkload0
*2089 clkload1
*2090 clkload10
*2091 clkload11
*2092 clkload12
*2093 clkload13
*2094 clkload14
*2095 clkload15
*2096 clkload2
*2097 clkload3
*2098 clkload4
*2099 clkload5
*2100 clkload6
*2101 clkload7
*2102 clkload8
*2103 clkload9
*2104 input1
*2105 input10
*2106 input11
*2107 input12
*2108 input2
*2109 input3
*2110 input4
*2111 input5
*2112 input6
*2113 input7
*2114 input8
*2115 input9
*2116 max_cap23
*2117 output13
*2118 output14
*2119 output15
*2120 output16
*2121 output17
*2122 output18
*2123 output19
*2124 output20
*2125 output21
*2126 output22

*PORTS
empty O
full O
rclk I
rdata[0] O
rdata[1] O
rdata[2] O
rdata[3] O
rdata[4] O
rdata[5] O
rdata[6] O
rdata[7] O
ren I
rrst_n I
wclk I
wdata[0] I
wdata[1] I
wdata[2] I
wdata[3] I
wdata[4] I
wdata[5] I
wdata[6] I
wdata[7] I
wen I
wrst_n I

*D_NET *3 0.000557711
*CONN
*P empty O
*I *2117:X O *D sky130_fd_sc_hd__buf_1
*CAP
1 empty 0.000193831
2 *2117:X 0.000193831
3 empty *2104:A 7.55722e-05
4 empty *2108:A 6.06593e-05
5 empty *2117:A 3.38178e-05
*RES
1 *2117:X empty 5.35677 
*END

*D_NET *4 0.000544985
*CONN
*P full O
*I *2118:X O *D sky130_fd_sc_hd__buf_1
*CAP
1 full 0.000231053
2 *2118:X 0.000231053
3 full *2106:A 8.28789e-05
4 full *2107:A 0
5 full *438:12 0
*RES
1 *2118:X full 5.86677 
*END

*D_NET *5 0.00668477
*CONN
*P rclk I
*I *2068:A I *D sky130_fd_sc_hd__clkbuf_16
*CAP
1 rclk 0.00258465
2 *2068:A 0.00258465
3 *2068:A rdata[0] 8.28789e-05
4 *2068:A *1902:D 0
5 *2068:A *1905:D 5.39718e-05
6 *2068:A *1907:RESET_B 0.000235585
7 *2068:A *1925:D 0.000414298
8 *2068:A *1999:RESET_B 0.0001638
9 *2068:A *2033:CLK 0
10 *2068:A *2033:D 0
11 *2068:A *2108:A 6.96296e-05
12 *2068:A *418:12 0
13 *2068:A *418:65 0
14 *2068:A *418:80 0
15 *2068:A *446:82 7.06865e-05
16 *2068:A *446:84 0.000275362
17 *2068:A *446:86 0.000143266
18 *2068:A *459:10 5.98004e-06
*RES
1 rclk *2068:A 29.0555 
*END

*D_NET *6 0.000412173
*CONN
*P rdata[0] O
*I *2119:X O *D sky130_fd_sc_hd__buf_1
*CAP
1 rdata[0] 0.000116127
2 *2119:X 0.000116127
3 rdata[0] rdata[5] 8.53361e-05
4 rdata[0] *2119:A 1.17036e-05
5 *2068:A rdata[0] 8.28789e-05
*RES
1 *2119:X rdata[0] 4.84677 
*END

*D_NET *7 0.000761861
*CONN
*P rdata[1] O
*I *2120:X O *D sky130_fd_sc_hd__buf_1
*CAP
1 rdata[1] 0.000380931
2 *2120:X 0.000380931
3 rdata[1] rdata[6] 0
4 rdata[1] *2110:A 0
*RES
1 *2120:X rdata[1] 10.35 
*END

*D_NET *8 0.000761861
*CONN
*P rdata[2] O
*I *2121:X O *D sky130_fd_sc_hd__buf_1
*CAP
1 rdata[2] 0.000380931
2 *2121:X 0.000380931
3 rdata[2] rdata[3] 0
*RES
1 *2121:X rdata[2] 10.35 
*END

*D_NET *9 0.000761861
*CONN
*P rdata[3] O
*I *2122:X O *D sky130_fd_sc_hd__buf_1
*CAP
1 rdata[3] 0.000380931
2 *2122:X 0.000380931
3 rdata[3] rdata[7] 0
4 rdata[2] rdata[3] 0
*RES
1 *2122:X rdata[3] 10.35 
*END

*D_NET *10 0.000761861
*CONN
*P rdata[4] O
*I *2123:X O *D sky130_fd_sc_hd__buf_1
*CAP
1 rdata[4] 0.000380931
2 *2123:X 0.000380931
3 rdata[4] rdata[6] 0
4 rdata[4] rdata[7] 0
*RES
1 *2123:X rdata[4] 10.35 
*END

*D_NET *11 0.000422208
*CONN
*P rdata[5] O
*I *2124:X O *D sky130_fd_sc_hd__buf_1
*CAP
1 rdata[5] 0.000168436
2 *2124:X 0.000168436
3 rdata[5] *1661:B 0
4 rdata[0] rdata[5] 8.53361e-05
*RES
1 *2124:X rdata[5] 5.10177 
*END

*D_NET *12 0.000761861
*CONN
*P rdata[6] O
*I *2125:X O *D sky130_fd_sc_hd__buf_1
*CAP
1 rdata[6] 0.000380931
2 *2125:X 0.000380931
3 rdata[1] rdata[6] 0
4 rdata[4] rdata[6] 0
*RES
1 *2125:X rdata[6] 10.35 
*END

*D_NET *13 0.000761861
*CONN
*P rdata[7] O
*I *2126:X O *D sky130_fd_sc_hd__buf_1
*CAP
1 rdata[7] 0.000380931
2 *2126:X 0.000380931
3 rdata[3] rdata[7] 0
4 rdata[4] rdata[7] 0
*RES
1 *2126:X rdata[7] 10.35 
*END

*D_NET *14 0.000758172
*CONN
*P ren I
*I *2104:A I *D sky130_fd_sc_hd__clkbuf_1
*CAP
1 ren 0.0003413
2 *2104:A 0.0003413
3 *2104:A *485:8 0
4 empty *2104:A 7.55722e-05
*RES
1 ren *2104:A 7.14177 
*END

*D_NET *15 0.00148968
*CONN
*P rrst_n I
*I *2108:A I *D sky130_fd_sc_hd__clkbuf_8
*CAP
1 rrst_n 0.000646657
2 *2108:A 0.000646657
3 *2108:A *2117:A 6.60795e-05
4 empty *2108:A 6.06593e-05
5 *2068:A *2108:A 6.96296e-05
*RES
1 rrst_n *2108:A 13.6535 
*END

*D_NET *16 0.0127141
*CONN
*P wclk I
*I *2069:A I *D sky130_fd_sc_hd__clkbuf_16
*CAP
1 wclk 0.00279512
2 *2069:A 0.00211179
3 *16:19 0.00490691
4 *2069:A *1639:A3 9.14601e-05
5 *2069:A *1770:A0 0.000348693
6 *2069:A *1770:A1 2.30292e-05
7 *2069:A *1882:A1 6.42013e-05
8 *2069:A *1959:D 0.000128642
9 *2069:A *1983:D 0.000162206
10 *2069:A *2054:CLK 9.66106e-05
11 *2069:A *2054:D 9.26175e-06
12 *2069:A *2057:CLK 0.000160483
13 *2069:A *2057:D 1.43717e-05
14 *2069:A *396:14 2.04902e-05
15 *2069:A *416:20 0.00172774
16 *16:19 *2115:A 5.30635e-05
*RES
1 wclk *16:19 47.8714 
2 *16:19 *2069:A 41.65 
*END

*D_NET *17 0.000713435
*CONN
*P wdata[0] I
*I *2109:A I *D sky130_fd_sc_hd__clkbuf_4
*CAP
1 wdata[0] 0.000343371
2 *2109:A 0.000343371
3 *2109:A *2113:A 0
4 *2109:A *451:18 2.66935e-05
5 *2109:A *456:18 0
*RES
1 wdata[0] *2109:A 9.645 
*END

*D_NET *18 0.000827959
*CONN
*P wdata[1] I
*I *2110:A I *D sky130_fd_sc_hd__clkbuf_4
*CAP
1 wdata[1] 0.000413979
2 *2110:A 0.000413979
3 rdata[1] *2110:A 0
*RES
1 wdata[1] *2110:A 10.95 
*END

*D_NET *19 0.000821859
*CONN
*P wdata[2] I
*I *2111:A I *D sky130_fd_sc_hd__clkbuf_4
*CAP
1 wdata[2] 0.000393645
2 *2111:A 0.000393645
3 *2111:A *2114:A 0
4 *2111:A *456:18 3.45679e-05
*RES
1 wdata[2] *2111:A 10.44 
*END

*D_NET *20 0.000827959
*CONN
*P wdata[3] I
*I *2112:A I *D sky130_fd_sc_hd__clkbuf_4
*CAP
1 wdata[3] 0.000413979
2 *2112:A 0.000413979
*RES
1 wdata[3] *2112:A 10.95 
*END

*D_NET *21 0.00124829
*CONN
*P wdata[4] I
*I *2113:A I *D sky130_fd_sc_hd__clkbuf_4
*CAP
1 wdata[4] 0.00039186
2 *2113:A 0.00039186
3 *2113:A *1826:A0 4.82863e-05
4 *2113:A *1826:A1 0.000138175
5 *2113:A *455:14 0.000278111
6 *2109:A *2113:A 0
*RES
1 wdata[4] *2113:A 12.165 
*END

*D_NET *22 0.000812876
*CONN
*P wdata[5] I
*I *2114:A I *D sky130_fd_sc_hd__clkbuf_4
*CAP
1 wdata[5] 0.000406438
2 *2114:A 0.000406438
3 *2111:A *2114:A 0
*RES
1 wdata[5] *2114:A 10.44 
*END

*D_NET *23 0.000639442
*CONN
*P wdata[6] I
*I *2115:A I *D sky130_fd_sc_hd__clkbuf_4
*CAP
1 wdata[6] 0.000293189
2 *2115:A 0.000293189
3 *16:19 *2115:A 5.30635e-05
*RES
1 wdata[6] *2115:A 7.4343 
*END

*D_NET *24 0.000656749
*CONN
*P wdata[7] I
*I *2105:A I *D sky130_fd_sc_hd__clkbuf_4
*CAP
1 wdata[7] 0.000263663
2 *2105:A 0.000263663
3 *2105:A *1799:S 0.000129424
*RES
1 wdata[7] *2105:A 6.18003 
*END

*D_NET *25 0.000559664
*CONN
*P wen I
*I *2106:A I *D sky130_fd_sc_hd__clkbuf_1
*CAP
1 wen 0.000238393
2 *2106:A 0.000238393
3 *2106:A *1673:B 0
4 *2106:A *2118:A 0
5 full *2106:A 8.28789e-05
*RES
1 wen *2106:A 6.12177 
*END

*D_NET *26 0.000503417
*CONN
*P wrst_n I
*I *2107:A I *D sky130_fd_sc_hd__clkbuf_8
*CAP
1 wrst_n 0.000251708
2 *2107:A 0.000251708
3 full *2107:A 0
*RES
1 wrst_n *2107:A 5.61177 
*END

*D_NET *27 0.00487193
*CONN
*I *1912:D I *D sky130_fd_sc_hd__dfxtp_1
*I *1723:X O *D sky130_fd_sc_hd__a22o_1
*CAP
1 *1912:D 0.00184083
2 *1723:X 0.00184083
3 *1912:D *1908:CLK 1.56428e-05
4 *1912:D *1910:D 9.5433e-05
5 *1912:D *1912:CLK 0.000311288
6 *1912:D *1999:D 9.37731e-05
7 *1912:D *477:10 4.66742e-05
8 *1912:D *477:32 0.000627466
*RES
1 *1723:X *1912:D 33.2588 
*END

*D_NET *28 0.00201531
*CONN
*I *1913:D I *D sky130_fd_sc_hd__dfxtp_1
*I *1731:X O *D sky130_fd_sc_hd__a22o_1
*CAP
1 *1913:D 0.000514057
2 *1731:X 0.000514057
3 *1913:D *1726:A0 9.16237e-05
4 *1913:D *1726:A1 0.000186099
5 *1913:D *1727:A2 0
6 *1913:D *1727:B1 0
7 *1913:D *1731:A2 0.000118652
8 *1913:D *1731:B1 0
9 *1913:D *1751:A1 9.03376e-05
10 *1913:D *392:10 7.63204e-05
11 *1913:D *408:30 1.7396e-05
12 *1913:D *408:570 0.000406771
13 *1913:D *409:8 0
14 *1913:D *410:24 0
*RES
1 *1731:X *1913:D 19.4438 
*END

*D_NET *29 0.00926066
*CONN
*I *1914:D I *D sky130_fd_sc_hd__dfxtp_1
*I *1739:X O *D sky130_fd_sc_hd__a22o_1
*CAP
1 *1914:D 0.000700896
2 *1739:X 0.0017696
3 *29:12 0.0024705
4 *1914:D *1747:A2 1.80524e-05
5 *1914:D *1747:B1 1.88904e-05
6 *1914:D *1914:CLK 7.50746e-05
7 *1914:D *1915:D 0.000450318
8 *1914:D *2123:A 0
9 *1914:D *267:71 6.15341e-05
10 *1914:D *417:47 1.82476e-05
11 *29:12 *1747:A2 0.000104132
12 *29:12 *1747:B1 0.000437398
13 *29:12 *1949:D 1.07797e-05
14 *29:12 *163:36 5.83121e-06
15 *29:12 *267:71 0.000517027
16 *29:12 *270:30 0.00150773
17 *29:12 *314:12 0.000353527
18 *29:12 *407:51 0.000222921
19 *29:12 *424:25 0.000162318
20 *29:12 *424:29 0.000355882
*RES
1 *1739:X *29:12 38.9475 
2 *29:12 *1914:D 17.8463 
*END

*D_NET *30 0.00234112
*CONN
*I *1915:D I *D sky130_fd_sc_hd__dfxtp_1
*I *1747:X O *D sky130_fd_sc_hd__a22o_1
*CAP
1 *1915:D 0.00042368
2 *1747:X 0.00042368
3 *1915:D *1747:B1 0.000115844
4 *1915:D *1917:CLK 7.70758e-05
5 *1915:D *1918:CLK 3.36661e-05
6 *1915:D *417:12 1.19928e-05
7 *1915:D *417:23 0.000461856
8 *1915:D *417:36 0.000203762
9 *1915:D *417:47 0.000139245
10 *1914:D *1915:D 0.000450318
*RES
1 *1747:X *1915:D 19.3388 
*END

*D_NET *31 0.00290987
*CONN
*I *1916:D I *D sky130_fd_sc_hd__dfxtp_1
*I *1636:X O *D sky130_fd_sc_hd__a22o_1
*CAP
1 *1916:D 0.000891939
2 *1636:X 0.000891939
3 *1916:D *1629:S0 0
4 *1916:D *1636:A1 1.7386e-05
5 *1916:D *1740:S1 0
6 *1916:D *1741:B 0.000309028
7 *1916:D *1774:S 4.92048e-05
8 *1916:D *1780:A1 4.68199e-05
9 *1916:D *1820:S 8.5225e-05
10 *1916:D *1916:CLK 0.0001111
11 *1916:D *1919:D 0
12 *1916:D *1941:D 0.000260218
13 *1916:D *164:73 9.05299e-05
14 *1916:D *264:68 3.69682e-05
15 *1916:D *266:35 3.24154e-05
16 *1916:D *407:51 8.71001e-05
17 *1916:D *424:65 0
18 *1916:D *424:71 0
*RES
1 *1636:X *1916:D 25.1138 
*END

*D_NET *32 0.000443158
*CONN
*I *1917:D I *D sky130_fd_sc_hd__dfxtp_1
*I *1644:X O *D sky130_fd_sc_hd__a22o_1
*CAP
1 *1917:D 0.000135387
2 *1644:X 0.000135387
3 *1917:D *1644:A1 9.98734e-06
4 *1917:D *267:32 0.000162397
*RES
1 *1644:X *1917:D 5.61875 
*END

*D_NET *33 0.00754809
*CONN
*I *1918:D I *D sky130_fd_sc_hd__dfxtp_1
*I *1652:X O *D sky130_fd_sc_hd__a22o_1
*CAP
1 *1918:D 0.00195034
2 *1652:X 0.00195034
3 *1918:D *1652:A1 0.000455903
4 *1918:D *1652:B2 4.82863e-05
5 *1918:D *1895:CLK 1.43717e-05
6 *1918:D *1919:D 0.000738449
7 *1918:D *2126:A 7.54567e-05
8 *1918:D *266:19 0.000155694
9 *1918:D *266:35 0.000136725
10 *1918:D *270:91 0.000335858
11 *1918:D *417:12 0.0011769
12 *1918:D *424:65 0.000445457
13 *1918:D *424:71 6.43122e-05
*RES
1 *1652:X *1918:D 43.0088 
*END

*D_NET *34 0.00434756
*CONN
*I *1919:D I *D sky130_fd_sc_hd__dfxtp_1
*I *1660:X O *D sky130_fd_sc_hd__a22o_1
*CAP
1 *1919:D 0.00133629
2 *1660:X 0.00133629
3 *1919:D *1820:S 0.00013188
4 *1919:D *1919:CLK 8.40269e-05
5 *1919:D *1941:D 4.82319e-06
6 *1919:D *262:36 9.89424e-05
7 *1919:D *417:23 0.000245015
8 *1919:D *417:36 0.000107658
9 *1919:D *417:47 1.07797e-05
10 *1919:D *424:65 0.000216108
11 *1919:D *424:71 3.72916e-05
12 *1916:D *1919:D 0
13 *1918:D *1919:D 0.000738449
*RES
1 *1660:X *1919:D 29.82 
*END

*D_NET *35 0.000576116
*CONN
*I *1894:D I *D sky130_fd_sc_hd__dfxtp_1
*I *1750:X O *D sky130_fd_sc_hd__mux2_1
*CAP
1 *1894:D 0.000288058
2 *1750:X 0.000288058
3 *1894:D *1747:B1 0
4 *1894:D *399:10 0
5 *1894:D *407:265 0
*RES
1 *1750:X *1894:D 11.5387 
*END

*D_NET *36 0.00052933
*CONN
*I *1895:D I *D sky130_fd_sc_hd__dfxtp_1
*I *1751:X O *D sky130_fd_sc_hd__mux2_1
*CAP
1 *1895:D 0.00020691
2 *1751:X 0.00020691
3 *1895:D *1751:A1 0.00011551
4 *1895:D *400:10 0
5 *1895:D *452:10 0
*RES
1 *1751:X *1895:D 10.1438 
*END

*D_NET *37 0.00107992
*CONN
*I *1896:D I *D sky130_fd_sc_hd__dfxtp_1
*I *1752:X O *D sky130_fd_sc_hd__mux2_1
*CAP
1 *1896:D 0.000308812
2 *1752:X 0.000308812
3 *1896:D *1637:S1 0.000133741
4 *1896:D *1732:A2 5.4003e-05
5 *1896:D *262:115 0.000138761
6 *1896:D *407:89 0.000135792
*RES
1 *1752:X *1896:D 13.5787 
*END

*D_NET *38 0.000241474
*CONN
*I *1897:D I *D sky130_fd_sc_hd__dfxtp_1
*I *1753:X O *D sky130_fd_sc_hd__mux2_1
*CAP
1 *1897:D 9.46887e-05
2 *1753:X 9.46887e-05
3 *1897:D *1756:S 0
4 *1897:D *402:10 0
5 *1897:D *454:10 5.20968e-05
*RES
1 *1753:X *1897:D 8.80875 
*END

*D_NET *39 0.000808258
*CONN
*I *1898:D I *D sky130_fd_sc_hd__dfxtp_1
*I *1754:X O *D sky130_fd_sc_hd__mux2_1
*CAP
1 *1898:D 0.000235753
2 *1754:X 0.000235753
3 *1898:D *1631:A3 9.27495e-05
4 *1898:D *1754:A1 0
5 *1898:D *1799:A1 0.000165025
6 *1898:D *266:71 7.89767e-05
7 *1898:D *395:10 0
*RES
1 *1754:X *1898:D 12.0787 
*END

*D_NET *40 0.000560772
*CONN
*I *1899:D I *D sky130_fd_sc_hd__dfxtp_1
*I *1755:X O *D sky130_fd_sc_hd__mux2_1
*CAP
1 *1899:D 0.000177761
2 *1755:X 0.000177761
3 *1899:D *1755:A1 0
4 *1899:D *433:16 0.00020525
*RES
1 *1755:X *1899:D 10.6987 
*END

*D_NET *41 0.000342525
*CONN
*I *1900:D I *D sky130_fd_sc_hd__dfxtp_1
*I *1756:X O *D sky130_fd_sc_hd__mux2_1
*CAP
1 *1900:D 0.000143734
2 *1756:X 0.000143734
3 *1900:D *1756:A0 0
4 *1900:D *301:10 0
5 *1900:D *457:172 5.50579e-05
*RES
1 *1756:X *1900:D 9.75375 
*END

*D_NET *42 0.00127303
*CONN
*I *1901:D I *D sky130_fd_sc_hd__dfxtp_1
*I *1757:X O *D sky130_fd_sc_hd__mux2_1
*CAP
1 *1901:D 0.000555596
2 *1757:X 0.000555596
3 *1901:D *1653:A2 0
4 *1901:D *436:21 0
5 *1901:D *436:25 0.000161837
*RES
1 *1757:X *1901:D 14.7788 
*END

*D_NET *43 0.00139955
*CONN
*I *1930:D I *D sky130_fd_sc_hd__dfxtp_1
*I *1759:X O *D sky130_fd_sc_hd__mux2_1
*CAP
1 *1930:D 0.000275822
2 *1759:X 0.000275822
3 *1930:D *1759:A1 7.23602e-05
4 *1930:D *1877:A1 7.06865e-05
5 *1930:D *264:16 0.000126073
6 *1930:D *416:120 0
7 *1930:D *422:12 0.000126073
8 *1930:D *451:158 0.000333496
9 *1930:D *451:169 0.000119214
*RES
1 *1759:X *1930:D 14.3438 
*END

*D_NET *44 0.00130064
*CONN
*I *1931:D I *D sky130_fd_sc_hd__dfxtp_1
*I *1760:X O *D sky130_fd_sc_hd__mux2_1
*CAP
1 *1931:D 0.000210827
2 *1760:X 0.000210827
3 *1931:D *1780:A1 0.000460304
4 *1931:D *163:73 0.000313114
5 *1931:D *320:6 6.99781e-05
6 *1931:D *407:51 3.55931e-05
7 *1931:D *452:150 0
*RES
1 *1760:X *1931:D 9.24875 
*END

*D_NET *45 0.000950061
*CONN
*I *1932:D I *D sky130_fd_sc_hd__dfxtp_1
*I *1761:X O *D sky130_fd_sc_hd__mux2_1
*CAP
1 *1932:D 0.000183737
2 *1761:X 0.000183737
3 *1932:D *1819:S 0.000266612
4 *1932:D *1932:CLK 5.83121e-06
5 *1932:D *1980:D 0.000109424
6 *1932:D *267:32 4.99619e-05
7 *1932:D *433:10 6.55328e-05
8 *1932:D *433:76 8.5225e-05
*RES
1 *1761:X *1932:D 11.8387 
*END

*D_NET *46 0.000337169
*CONN
*I *1933:D I *D sky130_fd_sc_hd__dfxtp_1
*I *1762:X O *D sky130_fd_sc_hd__mux2_1
*CAP
1 *1933:D 0.000119858
2 *1762:X 0.000119858
3 *1933:D *1646:A 0
4 *1933:D *407:61 4.53486e-05
5 *1933:D *407:167 5.21046e-05
*RES
1 *1762:X *1933:D 9.49875 
*END

*D_NET *47 0.000451707
*CONN
*I *1934:D I *D sky130_fd_sc_hd__dfxtp_1
*I *1763:X O *D sky130_fd_sc_hd__mux2_1
*CAP
1 *1934:D 0.000127449
2 *1763:X 0.000127449
3 *1934:D *1763:A0 0
4 *1934:D *1882:S 7.23533e-05
5 *1934:D *231:55 4.81438e-05
6 *1934:D *409:166 7.63125e-05
*RES
1 *1763:X *1934:D 10.0087 
*END

*D_NET *48 0.000487266
*CONN
*I *1935:D I *D sky130_fd_sc_hd__dfxtp_1
*I *1764:X O *D sky130_fd_sc_hd__mux2_1
*CAP
1 *1935:D 0.00019591
2 *1764:X 0.00019591
3 *1935:D *197:16 9.54469e-05
4 *1935:D *409:174 0
*RES
1 *1764:X *1935:D 10.1888 
*END

*D_NET *49 0.000711293
*CONN
*I *1936:D I *D sky130_fd_sc_hd__dfxtp_1
*I *1765:X O *D sky130_fd_sc_hd__mux2_1
*CAP
1 *1936:D 0.000289493
2 *1765:X 0.000289493
3 *1936:D *1883:S 3.68682e-05
4 *1936:D *457:29 9.54399e-05
*RES
1 *1765:X *1936:D 11.5688 
*END

*D_NET *50 0.000701591
*CONN
*I *1937:D I *D sky130_fd_sc_hd__dfxtp_1
*I *1766:X O *D sky130_fd_sc_hd__mux2_1
*CAP
1 *1937:D 0.000260215
2 *1766:X 0.000260215
3 *1937:D *270:47 0
4 *1937:D *457:31 0.00018116
*RES
1 *1766:X *1937:D 12.3938 
*END

*D_NET *51 0.000617408
*CONN
*I *1938:D I *D sky130_fd_sc_hd__dfxtp_1
*I *1768:X O *D sky130_fd_sc_hd__mux2_1
*CAP
1 *1938:D 9.90786e-05
2 *1768:X 9.90786e-05
3 *1938:D *1719:B1 9.54399e-05
4 *1938:D *1769:S 7.21296e-06
5 *1938:D *1938:CLK 0.000110295
6 *1938:D *1946:D 7.4027e-05
7 *1938:D *311:12 0.000108614
8 *1938:D *451:177 2.36616e-05
*RES
1 *1768:X *1938:D 10.0387 
*END

*D_NET *52 0.000328448
*CONN
*I *1939:D I *D sky130_fd_sc_hd__dfxtp_1
*I *1769:X O *D sky130_fd_sc_hd__mux2_1
*CAP
1 *1939:D 0.000107568
2 *1769:X 0.000107568
3 *1939:D *1769:A1 0.000113312
*RES
1 *1769:X *1939:D 4.92875 
*END

*D_NET *53 0.00119653
*CONN
*I *1940:D I *D sky130_fd_sc_hd__dfxtp_1
*I *1770:X O *D sky130_fd_sc_hd__mux2_1
*CAP
1 *1940:D 0.000131578
2 *1770:X 0.000131578
3 *1940:D *1734:A3 0.000114492
4 *1940:D *263:44 0.000194979
5 *1940:D *329:10 0.00015829
6 *1940:D *416:66 0.000270633
7 *1940:D *456:108 0.000194979
*RES
1 *1770:X *1940:D 12.2288 
*END

*D_NET *54 0.00102833
*CONN
*I *1941:D I *D sky130_fd_sc_hd__dfxtp_1
*I *1771:X O *D sky130_fd_sc_hd__mux2_1
*CAP
1 *1941:D 0.00031936
2 *1771:X 0.00031936
3 *1941:D *1629:S0 0
4 *1941:D *1742:A1 2.15738e-05
5 *1941:D *1742:A3 4.99619e-05
6 *1941:D *306:12 3.86607e-05
7 *1941:D *409:160 0
8 *1941:D *410:49 0
9 *1941:D *424:65 1.43717e-05
10 *1916:D *1941:D 0.000260218
11 *1919:D *1941:D 4.82319e-06
*RES
1 *1771:X *1941:D 13.5037 
*END

*D_NET *55 0.0016589
*CONN
*I *1942:D I *D sky130_fd_sc_hd__dfxtp_1
*I *1772:X O *D sky130_fd_sc_hd__mux2_1
*CAP
1 *1942:D 0.000364629
2 *1772:X 0.000364629
3 *1942:D *164:73 0.000487978
4 *1942:D *176:14 0
5 *1942:D *264:20 1.4399e-05
6 *1942:D *265:34 0.000312771
7 *1942:D *265:55 0.000114492
*RES
1 *1772:X *1942:D 15.5737 
*END

*D_NET *56 0.000556172
*CONN
*I *1943:D I *D sky130_fd_sc_hd__dfxtp_1
*I *1773:X O *D sky130_fd_sc_hd__mux2_1
*CAP
1 *1943:D 8.47494e-05
2 *1773:X 8.47494e-05
3 *1943:D *1639:A1 3.80606e-05
4 *1943:D *1644:A1 0.000162455
5 *1943:D *1763:S 9.30787e-05
6 *1943:D *455:104 9.30787e-05
*RES
1 *1773:X *1943:D 9.84375 
*END

*D_NET *57 0.00102376
*CONN
*I *1944:D I *D sky130_fd_sc_hd__dfxtp_1
*I *1774:X O *D sky130_fd_sc_hd__mux2_1
*CAP
1 *1944:D 0.000257763
2 *1774:X 0.000257763
3 *1944:D *457:138 0.000508231
*RES
1 *1774:X *1944:D 8.18375 
*END

*D_NET *58 0.001286
*CONN
*I *1945:D I *D sky130_fd_sc_hd__dfxtp_1
*I *1775:X O *D sky130_fd_sc_hd__mux2_1
*CAP
1 *1945:D 0.000162468
2 *1775:X 0.000162468
3 *1945:D *1652:B1 0.000494367
4 *1945:D *1784:A1 7.7152e-05
5 *1945:D *408:402 0.000271043
6 *1945:D *408:484 0.000118504
*RES
1 *1775:X *1945:D 13.635 
*END

*D_NET *59 0.00123942
*CONN
*I *1946:D I *D sky130_fd_sc_hd__dfxtp_1
*I *1777:X O *D sky130_fd_sc_hd__mux2_1
*CAP
1 *1946:D 0.000191641
2 *1777:X 0.000191641
3 *1946:D *1719:B1 0.000140787
4 *1946:D *2076:A 0.000235858
5 *1946:D *264:16 0.000161813
6 *1946:D *264:102 0.000108447
7 *1946:D *311:12 0.00013521
8 *1938:D *1946:D 7.4027e-05
*RES
1 *1777:X *1946:D 13.3387 
*END

*D_NET *60 0.000442024
*CONN
*I *1947:D I *D sky130_fd_sc_hd__dfxtp_1
*I *1778:X O *D sky130_fd_sc_hd__mux2_1
*CAP
1 *1947:D 0.000114279
2 *1778:X 0.000114279
3 *1947:D *1719:A1 3.76596e-05
4 *1947:D *1725:B 0.000121552
5 *1947:D *265:110 5.4256e-05
*RES
1 *1778:X *1947:D 10.0087 
*END

*D_NET *61 0.00184478
*CONN
*I *1948:D I *D sky130_fd_sc_hd__dfxtp_1
*I *1779:X O *D sky130_fd_sc_hd__mux2_1
*CAP
1 *1948:D 0.000380534
2 *1779:X 0.000380534
3 *1948:D *1638:B 7.7764e-05
4 *1948:D *1734:S0 0.000288302
5 *1948:D *2087:A 4.94404e-05
6 *1948:D *408:431 0
7 *1948:D *416:66 5.18691e-05
8 *1948:D *436:77 0.000616337
*RES
1 *1779:X *1948:D 16.6537 
*END

*D_NET *62 0.00115412
*CONN
*I *1949:D I *D sky130_fd_sc_hd__dfxtp_1
*I *1780:X O *D sky130_fd_sc_hd__mux2_1
*CAP
1 *1949:D 0.000178097
2 *1780:X 0.000178097
3 *1949:D *1742:S1 0.000122331
4 *1949:D *267:71 0.000181376
5 *1949:D *407:51 0.000302541
6 *1949:D *410:49 0.000180894
7 *29:12 *1949:D 1.07797e-05
*RES
1 *1780:X *1949:D 12.1987 
*END

*D_NET *63 0.000307928
*CONN
*I *1950:D I *D sky130_fd_sc_hd__dfxtp_1
*I *1781:X O *D sky130_fd_sc_hd__mux2_1
*CAP
1 *1950:D 5.77965e-05
2 *1781:X 5.77965e-05
3 *1950:D *1781:A0 5.01066e-05
4 *1950:D *1917:CLK 9.30787e-05
5 *1950:D *264:68 3.39064e-05
6 *1950:D *408:384 1.52434e-05
*RES
1 *1781:X *1950:D 8.80875 
*END

*D_NET *64 0.000417008
*CONN
*I *1951:D I *D sky130_fd_sc_hd__dfxtp_1
*I *1782:X O *D sky130_fd_sc_hd__mux2_1
*CAP
1 *1951:D 0.000148857
2 *1782:X 0.000148857
3 *1951:D *1782:A0 2.14942e-05
4 *1951:D *1951:CLK 9.78003e-05
*RES
1 *1782:X *1951:D 5.37875 
*END

*D_NET *65 0.00102137
*CONN
*I *1952:D I *D sky130_fd_sc_hd__dfxtp_1
*I *1783:X O *D sky130_fd_sc_hd__mux2_1
*CAP
1 *1952:D 0.000290009
2 *1783:X 0.000290009
3 *1952:D *1645:A1 0
4 *1952:D *1652:B1 0
5 *1952:D *1656:A2 1.71013e-05
6 *1952:D *1660:B1 6.02912e-05
7 *1952:D *1783:A0 4.82919e-05
8 *1952:D *1945:CLK 1.52184e-05
9 *1952:D *2090:A 0.000111184
10 *1952:D *416:138 6.8102e-05
11 *1952:D *421:10 7.89611e-05
12 *1952:D *421:82 4.21973e-05
*RES
1 *1783:X *1952:D 13.2937 
*END

*D_NET *66 0.0005829
*CONN
*I *1953:D I *D sky130_fd_sc_hd__dfxtp_1
*I *1784:X O *D sky130_fd_sc_hd__mux2_1
*CAP
1 *1953:D 9.94079e-05
2 *1784:X 9.94079e-05
3 *1953:D *1652:B1 0.000272313
4 *1953:D *1779:S 0.00010641
5 *1953:D *231:55 5.36069e-06
*RES
1 *1784:X *1953:D 10.5037 
*END

*D_NET *67 0.00113474
*CONN
*I *1954:D I *D sky130_fd_sc_hd__dfxtp_1
*I *1786:X O *D sky130_fd_sc_hd__mux2_1
*CAP
1 *1954:D 0.00034673
2 *1786:X 0.00034673
3 *1954:D *1716:A1 0.00013521
4 *1954:D *1750:A0 1.56428e-05
5 *1954:D *265:26 0.0001916
6 *1954:D *267:14 4.82863e-05
7 *1954:D *295:8 5.05437e-05
*RES
1 *1786:X *1954:D 14.2537 
*END

*D_NET *68 0.000996669
*CONN
*I *1955:D I *D sky130_fd_sc_hd__dfxtp_1
*I *1787:X O *D sky130_fd_sc_hd__mux2_1
*CAP
1 *1955:D 0.000151077
2 *1787:X 0.000151077
3 *1955:D *1740:S1 0.000201604
4 *1955:D *1815:S 0.00010978
5 *1955:D *1955:CLK 0.000243554
6 *1955:D *270:105 0.000139577
*RES
1 *1787:X *1955:D 8.43875 
*END

*D_NET *69 0.00093662
*CONN
*I *1956:D I *D sky130_fd_sc_hd__dfxtp_1
*I *1788:X O *D sky130_fd_sc_hd__mux2_1
*CAP
1 *1956:D 0.000227307
2 *1788:X 0.000227307
3 *1956:D *1788:A0 0.000178504
4 *1956:D *1964:D 0.000206817
5 *1956:D *433:93 9.66841e-05
*RES
1 *1788:X *1956:D 13.0837 
*END

*D_NET *70 0.0003554
*CONN
*I *1957:D I *D sky130_fd_sc_hd__dfxtp_1
*I *1789:X O *D sky130_fd_sc_hd__mux2_1
*CAP
1 *1957:D 0.000120974
2 *1789:X 0.000120974
3 *1957:D *1740:A1 0
4 *1957:D *1789:A1 0
5 *1957:D *1820:A0 0
6 *1957:D *1820:S 1.43717e-05
7 *1957:D *1957:CLK 4.91189e-05
8 *1957:D *266:53 4.99619e-05
9 *1957:D *402:10 0
*RES
1 *1789:X *1957:D 9.42375 
*END

*D_NET *71 0.00112208
*CONN
*I *1958:D I *D sky130_fd_sc_hd__dfxtp_1
*I *1790:X O *D sky130_fd_sc_hd__mux2_1
*CAP
1 *1958:D 0.00042722
2 *1790:X 0.00042722
3 *1958:D *1790:A0 0
4 *1958:D *1958:CLK 0.000128642
5 *1958:D *1966:CLK 6.14689e-05
6 *1958:D *420:59 7.75325e-05
7 *1958:D *455:175 0
*RES
1 *1790:X *1958:D 15.1237 
*END

*D_NET *72 0.000795504
*CONN
*I *1959:D I *D sky130_fd_sc_hd__dfxtp_1
*I *1791:X O *D sky130_fd_sc_hd__mux2_1
*CAP
1 *1959:D 0.000285708
2 *1791:X 0.000285708
3 *1959:D *1967:CLK 0
4 *1959:D *1967:D 9.54469e-05
5 *1959:D *300:10 0
6 *1959:D *433:22 0
7 *2069:A *1959:D 0.000128642
*RES
1 *1791:X *1959:D 12.3038 
*END

*D_NET *73 0.0013137
*CONN
*I *1960:D I *D sky130_fd_sc_hd__dfxtp_1
*I *1792:X O *D sky130_fd_sc_hd__mux2_1
*CAP
1 *1960:D 0.000450864
2 *1792:X 0.000450864
3 *1960:D *1801:A0 0
4 *1960:D *1944:CLK 0
5 *1960:D *1960:CLK 0.000166946
6 *1960:D *421:33 0
7 *1960:D *457:10 4.94326e-05
8 *1960:D *457:12 9.16315e-05
9 *1960:D *457:172 0.000103966
*RES
1 *1792:X *1960:D 15.9637 
*END

*D_NET *74 0.000419889
*CONN
*I *1961:D I *D sky130_fd_sc_hd__dfxtp_1
*I *1793:X O *D sky130_fd_sc_hd__mux2_1
*CAP
1 *1961:D 0.000162225
2 *1793:X 0.000162225
3 *1961:D *420:22 0
4 *1961:D *436:10 9.50342e-06
5 *1961:D *436:21 8.59365e-05
*RES
1 *1793:X *1961:D 9.84375 
*END

*D_NET *75 0.00187442
*CONN
*I *1962:D I *D sky130_fd_sc_hd__dfxtp_1
*I *1795:X O *D sky130_fd_sc_hd__mux2_1
*CAP
1 *1962:D 0.000415223
2 *1795:X 0.000415223
3 *1962:D *1639:S0 0.000184329
4 *1962:D *1639:S1 0
5 *1962:D *1640:A2 5.20968e-05
6 *1962:D *1644:A2 0.000115253
7 *1962:D *1644:B1 0.000181376
8 *1962:D *1962:CLK 4.82919e-05
9 *1962:D *163:36 1.19928e-05
10 *1962:D *176:14 0
11 *1962:D *263:32 4.47042e-05
12 *1962:D *265:34 2.16529e-05
13 *1962:D *267:32 0.00015639
14 *1962:D *422:26 0.000227886
*RES
1 *1795:X *1962:D 19.9188 
*END

*D_NET *76 0.00111606
*CONN
*I *1963:D I *D sky130_fd_sc_hd__dfxtp_1
*I *1796:X O *D sky130_fd_sc_hd__mux2_1
*CAP
1 *1963:D 0.000152737
2 *1796:X 0.000152737
3 *1963:D *1740:S1 0.000197973
4 *1963:D *1796:A0 0.000139238
5 *1963:D *270:105 0.000473379
*RES
1 *1796:X *1963:D 13.1138 
*END

*D_NET *77 0.000798364
*CONN
*I *1964:D I *D sky130_fd_sc_hd__dfxtp_1
*I *1797:X O *D sky130_fd_sc_hd__mux2_1
*CAP
1 *1964:D 0.000273741
2 *1797:X 0.000273741
3 *1964:D *1788:A0 4.40643e-05
4 *1964:D *1956:CLK 0
5 *1964:D *1964:CLK 0
6 *1956:D *1964:D 0.000206817
*RES
1 *1797:X *1964:D 12.3938 
*END

*D_NET *78 0.000725156
*CONN
*I *1965:D I *D sky130_fd_sc_hd__dfxtp_1
*I *1798:X O *D sky130_fd_sc_hd__mux2_1
*CAP
1 *1965:D 0.000197806
2 *1798:X 0.000197806
3 *1965:D *1798:A0 0
4 *1965:D *267:87 9.66932e-05
5 *1965:D *409:255 4.99619e-05
6 *1965:D *421:10 5.42473e-05
7 *1965:D *421:14 0.000128642
*RES
1 *1798:X *1965:D 11.4937 
*END

*D_NET *79 0.000441325
*CONN
*I *1966:D I *D sky130_fd_sc_hd__dfxtp_1
*I *1799:X O *D sky130_fd_sc_hd__mux2_1
*CAP
1 *1966:D 0.000134938
2 *1799:X 0.000134938
3 *1966:D *1799:A0 3.86607e-05
4 *1966:D *1799:A1 8.65961e-05
5 *1966:D *1966:CLK 4.61936e-05
*RES
1 *1799:X *1966:D 9.51375 
*END

*D_NET *80 0.000479875
*CONN
*I *1967:D I *D sky130_fd_sc_hd__dfxtp_1
*I *1800:X O *D sky130_fd_sc_hd__mux2_1
*CAP
1 *1967:D 0.000192214
2 *1800:X 0.000192214
3 *1967:D *1800:A0 0
4 *1967:D *300:10 0
5 *1959:D *1967:D 9.54469e-05
*RES
1 *1800:X *1967:D 10.1888 
*END

*D_NET *81 0.000338266
*CONN
*I *1968:D I *D sky130_fd_sc_hd__dfxtp_1
*I *1801:X O *D sky130_fd_sc_hd__mux2_1
*CAP
1 *1968:D 0.000101864
2 *1801:X 0.000101864
3 *1968:D *1968:CLK 0.000105777
4 *1968:D *267:89 1.4389e-05
5 *1968:D *457:8 1.43717e-05
*RES
1 *1801:X *1968:D 8.91375 
*END

*D_NET *82 0.000407145
*CONN
*I *1969:D I *D sky130_fd_sc_hd__dfxtp_1
*I *1802:X O *D sky130_fd_sc_hd__mux2_1
*CAP
1 *1969:D 0.000203572
2 *1802:X 0.000203572
3 *1969:D *1799:S 0
4 *1969:D *1802:A1 0
5 *1969:D *1969:CLK 0
*RES
1 *1802:X *1969:D 10.3538 
*END

*D_NET *83 0.000731259
*CONN
*I *1970:D I *D sky130_fd_sc_hd__dfxtp_1
*I *1805:X O *D sky130_fd_sc_hd__mux2_1
*CAP
1 *1970:D 0.000274447
2 *1805:X 0.000274447
3 *1970:D *1805:S 8.92483e-05
4 *1970:D *269:26 7.20071e-05
5 *1970:D *383:8 2.11084e-05
*RES
1 *1805:X *1970:D 8.18375 
*END

*D_NET *84 0.000341247
*CONN
*I *1971:D I *D sky130_fd_sc_hd__dfxtp_1
*I *1806:X O *D sky130_fd_sc_hd__mux2_1
*CAP
1 *1971:D 0.000135134
2 *1806:X 0.000135134
3 *1971:D *1746:A1 0
4 *1971:D *1834:A1 0
5 *1971:D *269:77 5.21697e-05
6 *1971:D *384:12 0
7 *1971:D *431:12 1.43717e-05
8 *1971:D *431:23 4.43871e-06
*RES
1 *1806:X *1971:D 9.42375 
*END

*D_NET *85 0.000791661
*CONN
*I *1972:D I *D sky130_fd_sc_hd__dfxtp_1
*I *1807:X O *D sky130_fd_sc_hd__mux2_1
*CAP
1 *1972:D 0.000395831
2 *1807:X 0.000395831
3 *1972:D *2013:D 0
*RES
1 *1807:X *1972:D 12.8737 
*END

*D_NET *86 0.00231851
*CONN
*I *1973:D I *D sky130_fd_sc_hd__dfxtp_1
*I *1808:X O *D sky130_fd_sc_hd__mux2_1
*CAP
1 *1973:D 0.000457884
2 *1808:X 0.000457884
3 *1973:D *1845:A0 0.000227732
4 *1973:D *176:14 0.000669574
5 *1973:D *276:61 0.000363252
6 *1973:D *378:8 4.94404e-05
7 *1973:D *386:14 9.2741e-05
8 *1973:D *455:104 0
*RES
1 *1808:X *1973:D 20.6138 
*END

*D_NET *87 0.00045256
*CONN
*I *1974:D I *D sky130_fd_sc_hd__dfxtp_1
*I *1809:X O *D sky130_fd_sc_hd__mux2_1
*CAP
1 *1974:D 0.000121633
2 *1809:X 0.000121633
3 *1974:D *1738:S 0.000130317
4 *1974:D *1871:S 0
5 *1974:D *416:45 7.89767e-05
*RES
1 *1809:X *1974:D 10.0087 
*END

*D_NET *88 0.000762758
*CONN
*I *1975:D I *D sky130_fd_sc_hd__dfxtp_1
*I *1810:X O *D sky130_fd_sc_hd__mux2_1
*CAP
1 *1975:D 0.000162855
2 *1810:X 0.000162855
3 *1975:D *1633:S0 0
4 *1975:D *426:83 8.26696e-05
5 *1975:D *426:98 3.68769e-05
6 *1975:D *456:41 0.0003175
*RES
1 *1810:X *1975:D 11.4637 
*END

*D_NET *89 0.000494197
*CONN
*I *1976:D I *D sky130_fd_sc_hd__dfxtp_1
*I *1811:X O *D sky130_fd_sc_hd__mux2_1
*CAP
1 *1976:D 0.000120817
2 *1811:X 0.000120817
3 *1976:D *1848:S 4.40899e-05
4 *1976:D *381:10 4.40899e-05
5 *1976:D *427:47 0.000164382
*RES
1 *1811:X *1976:D 10.0988 
*END

*D_NET *90 0.000521779
*CONN
*I *1977:D I *D sky130_fd_sc_hd__dfxtp_1
*I *1812:X O *D sky130_fd_sc_hd__mux2_1
*CAP
1 *1977:D 0.000232285
2 *1812:X 0.000232285
3 *1977:D *1849:A0 5.72091e-05
4 *1977:D *274:61 0
*RES
1 *1812:X *1977:D 11.0437 
*END

*D_NET *91 0.000617981
*CONN
*I *1978:D I *D sky130_fd_sc_hd__dfxtp_1
*I *1814:X O *D sky130_fd_sc_hd__mux2_1
*CAP
1 *1978:D 0.000165095
2 *1814:X 0.000165095
3 *1978:D *1814:A0 0.00015829
4 *1978:D *2091:A 1.43717e-05
5 *1978:D *263:95 0
6 *1978:D *270:30 7.10578e-05
7 *1978:D *422:18 4.40725e-05
*RES
1 *1814:X *1978:D 10.3687 
*END

*D_NET *92 0.00121107
*CONN
*I *1979:D I *D sky130_fd_sc_hd__dfxtp_1
*I *1815:X O *D sky130_fd_sc_hd__mux2_1
*CAP
1 *1979:D 0.000466884
2 *1815:X 0.000466884
3 *1979:D *1726:S0 4.94404e-05
4 *1979:D *1727:A2 4.9253e-06
5 *1979:D *1815:S 4.66108e-05
6 *1979:D *1913:CLK 9.14049e-05
7 *1979:D *392:10 8.49205e-05
*RES
1 *1815:X *1979:D 14.4637 
*END

*D_NET *93 0.00135535
*CONN
*I *1980:D I *D sky130_fd_sc_hd__dfxtp_1
*I *1816:X O *D sky130_fd_sc_hd__mux2_1
*CAP
1 *1980:D 0.000453536
2 *1816:X 0.000453536
3 *1980:D *1879:S 7.75412e-05
4 *1980:D *1932:CLK 9.80032e-06
5 *1980:D *433:80 4.82919e-05
6 *1980:D *433:93 1.54588e-05
7 *1980:D *457:31 0.000187766
8 *1932:D *1980:D 0.000109424
*RES
1 *1816:X *1980:D 14.2837 
*END

*D_NET *94 0.000451858
*CONN
*I *1981:D I *D sky130_fd_sc_hd__dfxtp_1
*I *1817:X O *D sky130_fd_sc_hd__mux2_1
*CAP
1 *1981:D 0.000136568
2 *1817:X 0.000136568
3 *1981:D *1817:A1 8.51595e-05
4 *1981:D *1963:CLK 9.35611e-05
*RES
1 *1817:X *1981:D 5.37875 
*END

*D_NET *95 0.00100189
*CONN
*I *1982:D I *D sky130_fd_sc_hd__dfxtp_1
*I *1818:X O *D sky130_fd_sc_hd__mux2_1
*CAP
1 *1982:D 0.000344233
2 *1818:X 0.000344233
3 *1982:D *1631:A3 5.4003e-05
4 *1982:D *1653:S0 7.06865e-05
5 *1982:D *1754:S 6.95204e-05
6 *1982:D *1818:A0 1.19928e-05
7 *1982:D *262:115 9.74933e-05
8 *1982:D *455:160 3.64998e-06
9 *1982:D *455:169 6.07575e-06
*RES
1 *1818:X *1982:D 12.6788 
*END

*D_NET *96 0.00146424
*CONN
*I *1983:D I *D sky130_fd_sc_hd__dfxtp_1
*I *1819:X O *D sky130_fd_sc_hd__mux2_1
*CAP
1 *1983:D 0.000279808
2 *1819:X 0.000279808
3 *1983:D *1637:A1 0.000162318
4 *1983:D *1637:S1 0.000118513
5 *1983:D *1755:A0 0.000340573
6 *1983:D *1819:A0 0.000121019
7 *2069:A *1983:D 0.000162206
*RES
1 *1819:X *1983:D 13.7887 
*END

*D_NET *97 0.00121467
*CONN
*I *1984:D I *D sky130_fd_sc_hd__dfxtp_1
*I *1820:X O *D sky130_fd_sc_hd__mux2_1
*CAP
1 *1984:D 0.000209291
2 *1820:X 0.000209291
3 *1984:D *1647:A1 9.54469e-05
4 *1984:D *1647:S1 0
5 *1984:D *1648:A2 0.000114492
6 *1984:D *1820:A0 0
7 *1984:D *266:53 8.90227e-05
8 *1984:D *267:87 0.000143794
9 *1984:D *421:18 0.000353334
*RES
1 *1820:X *1984:D 13.8638 
*END

*D_NET *98 0.000568537
*CONN
*I *1985:D I *D sky130_fd_sc_hd__dfxtp_1
*I *1821:X O *D sky130_fd_sc_hd__mux2_1
*CAP
1 *1985:D 0.000162131
2 *1821:X 0.000162131
3 *1985:D *1653:S0 0
4 *1985:D *1653:S1 2.68464e-05
5 *1985:D *1821:S 7.21296e-06
6 *1985:D *1968:CLK 0.000137571
7 *1985:D *420:121 7.26443e-05
*RES
1 *1821:X *1985:D 10.2188 
*END

*D_NET *99 0.00104743
*CONN
*I *1986:D I *D sky130_fd_sc_hd__dfxtp_1
*I *1824:X O *D sky130_fd_sc_hd__mux2_1
*CAP
1 *1986:D 0.000521888
2 *1824:X 0.000521888
3 *1986:D *279:10 3.64998e-06
*RES
1 *1824:X *1986:D 15.1538 
*END

*D_NET *100 0.00174138
*CONN
*I *1987:D I *D sky130_fd_sc_hd__dfxtp_1
*I *1825:X O *D sky130_fd_sc_hd__mux2_1
*CAP
1 *1987:D 0.000801584
2 *1825:X 0.000801584
3 *1987:D *1825:A0 1.19928e-05
4 *1987:D *1925:D 0
5 *1987:D *1987:CLK 1.43717e-05
6 *1987:D *1994:CLK 5.34747e-05
7 *1987:D *272:25 4.80285e-05
8 *1987:D *432:8 1.03423e-05
9 *1987:D *432:10 0
*RES
1 *1825:X *1987:D 17.0737 
*END

*D_NET *101 0.000417812
*CONN
*I *1988:D I *D sky130_fd_sc_hd__dfxtp_1
*I *1826:X O *D sky130_fd_sc_hd__mux2_1
*CAP
1 *1988:D 0.000208906
2 *1826:X 0.000208906
3 *1988:D *1826:A0 0
4 *1988:D *1988:CLK 0
*RES
1 *1826:X *1988:D 10.3538 
*END

*D_NET *102 0.000541215
*CONN
*I *1989:D I *D sky130_fd_sc_hd__dfxtp_1
*I *1827:X O *D sky130_fd_sc_hd__mux2_1
*CAP
1 *1989:D 0.000128913
2 *1827:X 0.000128913
3 *1989:D *1827:A0 0.000120655
4 *1989:D *1872:A1 5.02217e-05
5 *1989:D *2047:D 9.71067e-05
6 *1989:D *278:22 1.54049e-05
*RES
1 *1827:X *1989:D 9.60375 
*END

*D_NET *103 0.0013893
*CONN
*I *1990:D I *D sky130_fd_sc_hd__dfxtp_1
*I *1828:X O *D sky130_fd_sc_hd__mux2_1
*CAP
1 *1990:D 0.000218557
2 *1828:X 0.000218557
3 *1990:D *1633:A1 9.19758e-05
4 *1990:D *1633:A2 0
5 *1990:D *1633:S0 0.000141606
6 *1990:D *1828:A0 0
7 *1990:D *2024:CLK 0.000358467
8 *1990:D *275:57 0.000360142
*RES
1 *1828:X *1990:D 14.3737 
*END

*D_NET *104 0.000674237
*CONN
*I *1991:D I *D sky130_fd_sc_hd__dfxtp_1
*I *1829:X O *D sky130_fd_sc_hd__mux2_1
*CAP
1 *1991:D 0.000149623
2 *1829:X 0.000149623
3 *1991:D *1829:A1 3.68769e-05
4 *1991:D *2049:D 9.54469e-05
5 *1991:D *278:110 0.000242666
*RES
1 *1829:X *1991:D 10.5337 
*END

*D_NET *105 0.000534398
*CONN
*I *1992:D I *D sky130_fd_sc_hd__dfxtp_1
*I *1830:X O *D sky130_fd_sc_hd__mux2_1
*CAP
1 *1992:D 0.000101618
2 *1830:X 0.000101618
3 *1992:D *253:12 5.42473e-05
4 *1992:D *269:103 3.00381e-05
5 *1992:D *275:121 7.82635e-05
6 *1992:D *277:30 3.10407e-05
7 *1992:D *428:66 0.000137571
*RES
1 *1830:X *1992:D 10.005 
*END

*D_NET *106 0.000348069
*CONN
*I *1993:D I *D sky130_fd_sc_hd__dfxtp_1
*I *1831:X O *D sky130_fd_sc_hd__mux2_1
*CAP
1 *1993:D 9.23462e-05
2 *1831:X 9.23462e-05
3 *1993:D *272:99 9.30717e-05
4 *1993:D *276:61 7.03046e-05
5 *1993:D *409:180 0
*RES
1 *1831:X *1993:D 9.00375 
*END

*D_NET *107 0.000467453
*CONN
*I *2003:D I *D sky130_fd_sc_hd__dfxtp_1
*I *1833:X O *D sky130_fd_sc_hd__mux2_1
*CAP
1 *2003:D 0.000137107
2 *1833:X 0.000137107
3 *2003:D *1643:S 1.54049e-05
4 *2003:D *269:12 0.000143266
5 *2003:D *274:20 3.45679e-05
6 *2003:D *407:439 0
*RES
1 *1833:X *2003:D 9.76875 
*END

*D_NET *108 0.00131446
*CONN
*I *2004:D I *D sky130_fd_sc_hd__dfxtp_1
*I *1834:X O *D sky130_fd_sc_hd__mux2_1
*CAP
1 *2004:D 0.000480514
2 *1834:X 0.000480514
3 *2004:D *1729:A0 0.000139245
4 *2004:D *1729:A2 0
5 *2004:D *1834:A1 4.11194e-05
6 *2004:D *368:10 5.92681e-05
7 *2004:D *407:265 0.000113797
8 *2004:D *407:427 0
*RES
1 *1834:X *2004:D 15.3337 
*END

*D_NET *109 0.00145686
*CONN
*I *2005:D I *D sky130_fd_sc_hd__dfxtp_1
*I *1835:X O *D sky130_fd_sc_hd__mux2_1
*CAP
1 *2005:D 0.000318449
2 *1835:X 0.000318449
3 *2005:D *1835:S 9.95272e-05
4 *2005:D *1844:A0 7.89767e-05
5 *2005:D *1862:A0 0.000198293
6 *2005:D *361:10 7.06865e-05
7 *2005:D *377:10 0.000173965
8 *2005:D *419:14 0.000198517
*RES
1 *1835:X *2005:D 14.7188 
*END

*D_NET *110 0.00143007
*CONN
*I *2006:D I *D sky130_fd_sc_hd__dfxtp_1
*I *1836:X O *D sky130_fd_sc_hd__mux2_1
*CAP
1 *2006:D 0.000457939
2 *1836:X 0.000457939
3 *2006:D *1745:A0 1.07797e-05
4 *2006:D *1745:S0 2.78732e-05
5 *2006:D *1836:A1 0.000113797
6 *2006:D *1863:A0 8.65961e-05
7 *2006:D *370:10 0.000188225
8 *2006:D *454:53 8.69212e-05
*RES
1 *1836:X *2006:D 15.3337 
*END

*D_NET *111 0.00132121
*CONN
*I *2007:D I *D sky130_fd_sc_hd__dfxtp_1
*I *1837:X O *D sky130_fd_sc_hd__mux2_1
*CAP
1 *2007:D 0.00035583
2 *1837:X 0.00035583
3 *2007:D *1634:S0 0
4 *2007:D *1738:S 0.000111513
5 *2007:D *1826:S 0
6 *2007:D *1837:A1 0.000320236
7 *2007:D *274:53 5.92835e-05
8 *2007:D *371:10 0.00011852
9 *2007:D *409:180 0
*RES
1 *1837:X *2007:D 14.5988 
*END

*D_NET *112 0.000368883
*CONN
*I *2008:D I *D sky130_fd_sc_hd__dfxtp_1
*I *1838:X O *D sky130_fd_sc_hd__mux2_1
*CAP
1 *2008:D 0.000136718
2 *1838:X 0.000136718
3 *2008:D *408:216 9.54469e-05
*RES
1 *1838:X *2008:D 9.49875 
*END

*D_NET *113 0.00139781
*CONN
*I *2009:D I *D sky130_fd_sc_hd__dfxtp_1
*I *1839:X O *D sky130_fd_sc_hd__mux2_1
*CAP
1 *2009:D 0.000441197
2 *1839:X 0.000441197
3 *2009:D *1650:S0 0.000406764
4 *2009:D *1839:A1 9.41783e-05
5 *2009:D *269:103 1.447e-05
*RES
1 *1839:X *2009:D 15.1388 
*END

*D_NET *114 0.000621149
*CONN
*I *2010:D I *D sky130_fd_sc_hd__dfxtp_1
*I *1840:X O *D sky130_fd_sc_hd__mux2_1
*CAP
1 *2010:D 0.000216433
2 *1840:X 0.000216433
3 *2010:D *1658:A1 7.39699e-05
4 *2010:D *1737:S0 2.16389e-05
5 *2010:D *1840:A0 4.6368e-06
6 *2010:D *1840:A1 7.36653e-05
7 *2010:D *427:79 1.43717e-05
*RES
1 *1840:X *2010:D 10.4587 
*END

*D_NET *115 0.000723761
*CONN
*I *2011:D I *D sky130_fd_sc_hd__dfxtp_1
*I *1842:X O *D sky130_fd_sc_hd__mux2_1
*CAP
1 *2011:D 0.000351326
2 *1842:X 0.000351326
3 *2011:D *375:8 2.11084e-05
*RES
1 *1842:X *2011:D 8.18375 
*END

*D_NET *116 0.00109955
*CONN
*I *2012:D I *D sky130_fd_sc_hd__dfxtp_1
*I *1843:X O *D sky130_fd_sc_hd__mux2_1
*CAP
1 *2012:D 0.000324225
2 *1843:X 0.000324225
3 *2012:D *2004:CLK 1.90686e-05
4 *2012:D *276:35 2.10134e-05
5 *2012:D *276:61 0
6 *2012:D *376:10 4.27071e-05
7 *2012:D *429:99 0.000329872
8 *2012:D *429:101 3.84341e-05
*RES
1 *1843:X *2012:D 9.45875 
*END

*D_NET *117 0.00114185
*CONN
*I *2013:D I *D sky130_fd_sc_hd__dfxtp_1
*I *1844:X O *D sky130_fd_sc_hd__mux2_1
*CAP
1 *2013:D 0.000506603
2 *1844:X 0.000506603
3 *2013:D *1807:A1 0
4 *2013:D *1807:S 0
5 *2013:D *1972:CLK 0
6 *2013:D *419:18 0.000128642
7 *1972:D *2013:D 0
*RES
1 *1844:X *2013:D 15.8737 
*END

*D_NET *118 0.00115724
*CONN
*I *2014:D I *D sky130_fd_sc_hd__dfxtp_1
*I *1845:X O *D sky130_fd_sc_hd__mux2_1
*CAP
1 *2014:D 0.000578619
2 *1845:X 0.000578619
3 *2014:D *409:176 0
4 *2014:D *409:180 0
5 *2014:D *455:104 0
*RES
1 *1845:X *2014:D 16.1287 
*END

*D_NET *119 0.000593456
*CONN
*I *2015:D I *D sky130_fd_sc_hd__dfxtp_1
*I *1846:X O *D sky130_fd_sc_hd__mux2_1
*CAP
1 *2015:D 0.000215343
2 *1846:X 0.000215343
3 *2015:D *1738:A0 0
4 *2015:D *1871:S 0.000114483
5 *2015:D *1888:S 0
6 *2015:D *274:55 4.82863e-05
7 *2015:D *419:113 0
*RES
1 *1846:X *2015:D 11.2087 
*END

*D_NET *120 0.000788145
*CONN
*I *2016:D I *D sky130_fd_sc_hd__dfxtp_1
*I *1847:X O *D sky130_fd_sc_hd__mux2_1
*CAP
1 *2016:D 0.000210257
2 *1847:X 0.000210257
3 *2016:D *1634:S1 0
4 *2016:D *1635:A1 3.86607e-05
5 *2016:D *2016:CLK 0.000166946
6 *2016:D *363:12 0
7 *2016:D *407:463 3.64998e-06
8 *2016:D *407:467 6.85082e-05
9 *2016:D *426:83 1.0183e-05
10 *2016:D *426:98 7.96827e-05
*RES
1 *1847:X *2016:D 12.1388 
*END

*D_NET *121 0.000615753
*CONN
*I *2017:D I *D sky130_fd_sc_hd__dfxtp_1
*I *1848:X O *D sky130_fd_sc_hd__mux2_1
*CAP
1 *2017:D 0.000209245
2 *1848:X 0.000209245
3 *2017:D *1848:S 0
4 *2017:D *427:53 0.000187759
5 *2017:D *427:66 9.50342e-06
*RES
1 *1848:X *2017:D 11.0138 
*END

*D_NET *122 0.000486535
*CONN
*I *2018:D I *D sky130_fd_sc_hd__dfxtp_1
*I *1849:X O *D sky130_fd_sc_hd__mux2_1
*CAP
1 *2018:D 0.000175266
2 *1849:X 0.000175266
3 *2018:D *274:61 0
4 *2018:D *427:66 5.72091e-05
5 *2018:D *427:70 6.4422e-05
6 *2018:D *427:79 1.43717e-05
*RES
1 *1849:X *2018:D 10.7587 
*END

*D_NET *123 0.00072557
*CONN
*I *2019:D I *D sky130_fd_sc_hd__dfxtp_1
*I *1851:X O *D sky130_fd_sc_hd__mux2_1
*CAP
1 *2019:D 0.000178707
2 *1851:X 0.000178707
3 *2019:D *1722:A0 8.40213e-05
4 *2019:D *1824:A1 1.54049e-05
5 *2019:D *1851:A1 2.54431e-05
6 *2019:D *2044:D 0.00017971
7 *2019:D *275:34 4.92062e-05
8 *2019:D *430:14 1.43717e-05
*RES
1 *1851:X *2019:D 10.9688 
*END

*D_NET *124 0.00172134
*CONN
*I *2020:D I *D sky130_fd_sc_hd__dfxtp_1
*I *1852:X O *D sky130_fd_sc_hd__mux2_1
*CAP
1 *2020:D 0.000286384
2 *1852:X 0.000286384
3 *2020:D *277:92 0.000531088
4 *2020:D *408:134 0.000238427
5 *2020:D *409:98 0.000177657
6 *2020:D *430:67 0.0002014
*RES
1 *1852:X *2020:D 15.6337 
*END

*D_NET *125 0.000914978
*CONN
*I *2021:D I *D sky130_fd_sc_hd__dfxtp_1
*I *1853:X O *D sky130_fd_sc_hd__mux2_1
*CAP
1 *2021:D 0.00021377
2 *1853:X 0.00021377
3 *2021:D *2062:D 8.97564e-05
4 *2021:D *419:63 0.000313643
5 *2021:D *453:25 8.40388e-05
*RES
1 *1853:X *2021:D 11.9888 
*END

*D_NET *126 0.000507542
*CONN
*I *2022:D I *D sky130_fd_sc_hd__dfxtp_1
*I *1854:X O *D sky130_fd_sc_hd__mux2_1
*CAP
1 *2022:D 0.000132278
2 *1854:X 0.000132278
3 *2022:D *408:247 0.000101379
4 *2022:D *409:176 0
5 *2022:D *455:104 0.000141606
*RES
1 *1854:X *2022:D 10.3538 
*END

*D_NET *127 0.000826747
*CONN
*I *2023:D I *D sky130_fd_sc_hd__dfxtp_1
*I *1855:X O *D sky130_fd_sc_hd__mux2_1
*CAP
1 *2023:D 0.00018005
2 *1855:X 0.00018005
3 *2023:D *1826:S 0.000291365
4 *2023:D *2023:CLK 0.000126073
5 *2023:D *2064:D 4.92096e-05
6 *2023:D *455:20 0
*RES
1 *1855:X *2023:D 11.7937 
*END

*D_NET *128 0.00137945
*CONN
*I *2024:D I *D sky130_fd_sc_hd__dfxtp_1
*I *1856:X O *D sky130_fd_sc_hd__mux2_1
*CAP
1 *2024:D 0.00038174
2 *1856:X 0.00038174
3 *2024:D *1856:A1 0
4 *2024:D *1873:S 3.00381e-05
5 *2024:D *1890:S 0.000164679
6 *2024:D *1891:S 0.000137578
7 *2024:D *275:57 0.000271489
8 *2024:D *356:6 3.64998e-06
9 *2024:D *429:46 8.53113e-06
*RES
1 *1856:X *2024:D 15.3488 
*END

*D_NET *129 0.000603225
*CONN
*I *2025:D I *D sky130_fd_sc_hd__dfxtp_1
*I *1857:X O *D sky130_fd_sc_hd__mux2_1
*CAP
1 *2025:D 0.000210739
2 *1857:X 0.000210739
3 *2025:D *1651:A1 5.35969e-06
4 *2025:D *2066:D 3.42142e-05
5 *2025:D *269:103 4.82319e-06
6 *2025:D *453:90 0.000128818
7 *2025:D *457:39 8.53113e-06
8 *2025:D *457:50 0
9 *2025:D *457:52 0
*RES
1 *1857:X *2025:D 11.4637 
*END

*D_NET *130 0.000671584
*CONN
*I *2026:D I *D sky130_fd_sc_hd__dfxtp_1
*I *1858:X O *D sky130_fd_sc_hd__mux2_1
*CAP
1 *2026:D 0.000167577
2 *1858:X 0.000167577
3 *2026:D *1888:S 0
4 *2026:D *276:61 9.54399e-05
5 *2026:D *407:311 0.000240991
*RES
1 *1858:X *2026:D 10.5337 
*END

*D_NET *131 0.00200981
*CONN
*I *2036:D I *D sky130_fd_sc_hd__dfxtp_1
*I *1860:X O *D sky130_fd_sc_hd__mux2_1
*CAP
1 *2036:D 0.000402327
2 *1860:X 0.000402327
3 *2036:D *1643:S 0.000118081
4 *2036:D *1860:A0 0.000285883
5 *2036:D *2036:CLK 0.000162461
6 *2036:D *275:34 0.00047128
7 *2036:D *359:10 0.000167456
8 *2036:D *430:8 0
9 *2036:D *430:14 0
*RES
1 *1860:X *2036:D 17.0438 
*END

*D_NET *132 0.000465187
*CONN
*I *2037:D I *D sky130_fd_sc_hd__dfxtp_1
*I *1861:X O *D sky130_fd_sc_hd__mux2_1
*CAP
1 *2037:D 7.56523e-05
2 *1861:X 7.56523e-05
3 *2037:D *2037:CLK 3.42142e-05
4 *2037:D *274:10 0.000139238
5 *2037:D *276:16 7.5416e-05
6 *2037:D *276:22 2.50284e-05
7 *2037:D *407:427 3.99855e-05
*RES
1 *1861:X *2037:D 9.555 
*END

*D_NET *133 0.00110989
*CONN
*I *2038:D I *D sky130_fd_sc_hd__dfxtp_1
*I *1862:X O *D sky130_fd_sc_hd__mux2_1
*CAP
1 *2038:D 0.000214229
2 *1862:X 0.000214229
3 *2038:D *1737:S1 0.000320834
4 *2038:D *1738:A1 7.4027e-05
5 *2038:D *1835:S 0
6 *2038:D *1888:S 0.000238277
7 *2038:D *274:55 4.82919e-05
*RES
1 *1862:X *2038:D 13.5037 
*END

*D_NET *134 0.000422017
*CONN
*I *2039:D I *D sky130_fd_sc_hd__dfxtp_1
*I *1863:X O *D sky130_fd_sc_hd__mux2_1
*CAP
1 *2039:D 7.79135e-05
2 *1863:X 7.79135e-05
3 *2039:D *1863:S 3.50033e-05
4 *2039:D *273:46 0.000141606
5 *2039:D *276:61 8.81733e-05
6 *2039:D *386:14 1.40723e-06
*RES
1 *1863:X *2039:D 9.555 
*END

*D_NET *135 0.00183913
*CONN
*I *2040:D I *D sky130_fd_sc_hd__dfxtp_1
*I *1864:X O *D sky130_fd_sc_hd__mux2_1
*CAP
1 *2040:D 0.000249926
2 *1864:X 0.000249926
3 *2040:D *1634:S0 0.000250616
4 *2040:D *1736:S0 0.000247567
5 *2040:D *1809:S 0.000128642
6 *2040:D *1837:A1 0
7 *2040:D *2040:CLK 5.2325e-05
8 *2040:D *455:55 0.000660128
*RES
1 *1864:X *2040:D 16.1287 
*END

*D_NET *136 0.000443768
*CONN
*I *2041:D I *D sky130_fd_sc_hd__dfxtp_1
*I *1865:X O *D sky130_fd_sc_hd__mux2_1
*CAP
1 *2041:D 0.000144518
2 *1865:X 0.000144518
3 *2041:D *1642:A2 2.97674e-05
4 *2041:D *2041:CLK 4.82319e-06
5 *2041:D *276:117 0
6 *2041:D *408:207 7.63125e-05
7 *2041:D *429:31 4.38278e-05
*RES
1 *1865:X *2041:D 10.0087 
*END

*D_NET *137 0.000875431
*CONN
*I *2042:D I *D sky130_fd_sc_hd__dfxtp_1
*I *1866:X O *D sky130_fd_sc_hd__mux2_1
*CAP
1 *2042:D 0.00027971
2 *1866:X 0.00027971
3 *2042:D *1650:S0 0.00030164
4 *2042:D *373:10 0
5 *2042:D *427:43 1.43717e-05
*RES
1 *1866:X *2042:D 12.3638 
*END

*D_NET *138 0.000420091
*CONN
*I *2043:D I *D sky130_fd_sc_hd__dfxtp_1
*I *1867:X O *D sky130_fd_sc_hd__mux2_1
*CAP
1 *2043:D 7.71172e-05
2 *1867:X 7.71172e-05
3 *2043:D *1867:A0 8.7774e-05
4 *2043:D *407:311 8.7774e-05
5 *2043:D *436:133 9.03081e-05
*RES
1 *1867:X *2043:D 9.15375 
*END

*D_NET *139 0.0011958
*CONN
*I *2044:D I *D sky130_fd_sc_hd__dfxtp_1
*I *1869:X O *D sky130_fd_sc_hd__mux2_1
*CAP
1 *2044:D 0.000306177
2 *1869:X 0.000306177
3 *2044:D *1720:S1 0
4 *2044:D *1869:A0 2.49909e-05
5 *2044:D *272:35 2.62239e-05
6 *2044:D *275:34 0.000114492
7 *2044:D *277:102 9.87877e-05
8 *2044:D *430:14 0
9 *2044:D *430:32 0.000139238
10 *2019:D *2044:D 0.00017971
*RES
1 *1869:X *2044:D 13.5337 
*END

*D_NET *140 0.000733185
*CONN
*I *2045:D I *D sky130_fd_sc_hd__dfxtp_1
*I *1870:X O *D sky130_fd_sc_hd__mux2_1
*CAP
1 *2045:D 0.000181521
2 *1870:X 0.000181521
3 *2045:D *1852:A1 0.000118496
4 *2045:D *2045:CLK 0.000107773
5 *2045:D *272:25 0
6 *2045:D *336:10 7.83494e-05
7 *2045:D *352:10 6.5525e-05
*RES
1 *1870:X *2045:D 12.0487 
*END

*D_NET *141 0.00125503
*CONN
*I *2046:D I *D sky130_fd_sc_hd__dfxtp_1
*I *1871:X O *D sky130_fd_sc_hd__mux2_1
*CAP
1 *2046:D 0.000307208
2 *1871:X 0.000307208
3 *2046:D *1736:A3 0
4 *2046:D *1736:S1 4.17687e-05
5 *2046:D *1738:A0 0
6 *2046:D *1853:S 0.000275553
7 *2046:D *1871:A1 0
8 *2046:D *1988:CLK 1.0183e-05
9 *2046:D *2064:CLK 0.000112349
10 *2046:D *337:10 0
11 *2046:D *419:70 0.00020076
*RES
1 *1871:X *2046:D 14.0288 
*END

*D_NET *142 0.00109141
*CONN
*I *2047:D I *D sky130_fd_sc_hd__dfxtp_1
*I *1872:X O *D sky130_fd_sc_hd__mux2_1
*CAP
1 *2047:D 0.000250003
2 *1872:X 0.000250003
3 *2047:D *1746:A0 7.18738e-05
4 *2047:D *1872:A1 0.000105569
5 *2047:D *277:18 0.000148939
6 *2047:D *282:14 0.000116853
7 *2047:D *338:10 5.10628e-05
8 *2047:D *431:34 0
9 *1989:D *2047:D 9.71067e-05
*RES
1 *1872:X *2047:D 13.5037 
*END

*D_NET *143 0.000428097
*CONN
*I *2048:D I *D sky130_fd_sc_hd__dfxtp_1
*I *1873:X O *D sky130_fd_sc_hd__mux2_1
*CAP
1 *2048:D 0.000149728
2 *1873:X 0.000149728
3 *2048:D *1873:A1 0
4 *2048:D *1890:A0 0
5 *2048:D *2065:CLK 0.000128642
6 *2048:D *426:36 0
*RES
1 *1873:X *2048:D 10.0087 
*END

*D_NET *144 0.0014486
*CONN
*I *2049:D I *D sky130_fd_sc_hd__dfxtp_1
*I *1874:X O *D sky130_fd_sc_hd__mux2_1
*CAP
1 *2049:D 0.000450698
2 *1874:X 0.000450698
3 *2049:D *1641:A3 6.5058e-05
4 *2049:D *1829:A1 0
5 *2049:D *1856:S 0
6 *2049:D *1873:S 4.99619e-05
7 *2049:D *1991:CLK 0.000198196
8 *2049:D *275:57 0.000124151
9 *2049:D *340:8 1.4389e-05
10 *1991:D *2049:D 9.54469e-05
*RES
1 *1874:X *2049:D 15.4388 
*END

*D_NET *145 0.000695871
*CONN
*I *2050:D I *D sky130_fd_sc_hd__dfxtp_1
*I *1875:X O *D sky130_fd_sc_hd__mux2_1
*CAP
1 *2050:D 0.000168183
2 *1875:X 0.000168183
3 *2050:D *1651:A1 0.000166951
4 *2050:D *1875:S 9.54469e-05
5 *2050:D *436:77 9.71067e-05
*RES
1 *1875:X *2050:D 10.8787 
*END

*D_NET *146 0.000482869
*CONN
*I *2051:D I *D sky130_fd_sc_hd__dfxtp_1
*I *1876:X O *D sky130_fd_sc_hd__mux2_1
*CAP
1 *2051:D 0.00014692
2 *1876:X 0.00014692
3 *2051:D *1657:A2 5.83121e-06
4 *2051:D *407:293 4.39534e-05
5 *2051:D *407:295 0
6 *2051:D *407:373 0
7 *2051:D *416:45 0.000139245
*RES
1 *1876:X *2051:D 10.0087 
*END

*D_NET *147 0.000665334
*CONN
*I *2052:D I *D sky130_fd_sc_hd__dfxtp_1
*I *1877:X O *D sky130_fd_sc_hd__mux2_1
*CAP
1 *2052:D 0.000237714
2 *1877:X 0.000237714
3 *2052:D *263:95 3.68769e-05
4 *2052:D *408:384 0.000116153
5 *2052:D *451:158 3.68769e-05
*RES
1 *1877:X *2052:D 11.5688 
*END

*D_NET *148 0.00120953
*CONN
*I *2053:D I *D sky130_fd_sc_hd__dfxtp_1
*I *1878:X O *D sky130_fd_sc_hd__mux2_1
*CAP
1 *2053:D 0.000262996
2 *1878:X 0.000262996
3 *2053:D *1724:A0 9.39379e-05
4 *2053:D *1724:A1 0.000114492
5 *2053:D *1742:S1 4.91914e-05
6 *2053:D *1762:S 6.37749e-05
7 *2053:D *2078:A 7.07407e-05
8 *2053:D *263:110 0
9 *2053:D *416:120 0.000164679
10 *2053:D *425:16 0.00012672
*RES
1 *1878:X *2053:D 14.0887 
*END

*D_NET *149 0.000511655
*CONN
*I *2054:D I *D sky130_fd_sc_hd__dfxtp_1
*I *1879:X O *D sky130_fd_sc_hd__mux2_1
*CAP
1 *2054:D 0.000108708
2 *1879:X 0.000108708
3 *2054:D *1638:B 8.65961e-05
4 *2054:D *453:90 0.000143266
5 *2054:D *457:31 5.51158e-05
6 *2069:A *2054:D 9.26175e-06
*RES
1 *1879:X *2054:D 9.76875 
*END

*D_NET *150 0.000463071
*CONN
*I *2055:D I *D sky130_fd_sc_hd__dfxtp_1
*I *1880:X O *D sky130_fd_sc_hd__mux2_1
*CAP
1 *2055:D 7.81772e-05
2 *1880:X 7.81772e-05
3 *2055:D *1646:A 0
4 *2055:D *1783:S 0
5 *2055:D *163:73 0.000128642
6 *2055:D *164:34 4.94326e-05
7 *2055:D *410:88 0.000128642
*RES
1 *1880:X *2055:D 9.49875 
*END

*D_NET *151 0.000672716
*CONN
*I *2056:D I *D sky130_fd_sc_hd__dfxtp_1
*I *1881:X O *D sky130_fd_sc_hd__mux2_1
*CAP
1 *2056:D 0.000202052
2 *1881:X 0.000202052
3 *2056:D *408:394 0.000189634
4 *2056:D *409:166 0
5 *2056:D *455:145 7.89767e-05
*RES
1 *1881:X *2056:D 11.7338 
*END

*D_NET *152 0.00045306
*CONN
*I *2057:D I *D sky130_fd_sc_hd__dfxtp_1
*I *1882:X O *D sky130_fd_sc_hd__mux2_1
*CAP
1 *2057:D 0.000171531
2 *1882:X 0.000171531
3 *2057:D *197:16 4.94326e-05
4 *2057:D *409:174 3.18219e-05
5 *2057:D *416:20 1.43717e-05
6 *2069:A *2057:D 1.43717e-05
*RES
1 *1882:X *2057:D 9.60375 
*END

*D_NET *153 0.000891582
*CONN
*I *2058:D I *D sky130_fd_sc_hd__dfxtp_1
*I *1883:X O *D sky130_fd_sc_hd__mux2_1
*CAP
1 *2058:D 7.47579e-05
2 *1883:X 7.47579e-05
3 *2058:D *1821:S 9.30787e-05
4 *2058:D *2073:A 0.000277114
5 *2058:D *266:65 0.000278795
6 *2058:D *436:48 9.30787e-05
*RES
1 *1883:X *2058:D 10.8787 
*END

*D_NET *154 0.000649009
*CONN
*I *2059:D I *D sky130_fd_sc_hd__dfxtp_1
*I *1884:X O *D sky130_fd_sc_hd__mux2_1
*CAP
1 *2059:D 0.000122916
2 *1884:X 0.000122916
3 *2059:D *1733:B 0.000204362
4 *2059:D *1879:S 5.72091e-05
5 *2059:D *457:31 0.000141606
*RES
1 *1884:X *2059:D 10.6987 
*END

*D_NET *155 0.000323856
*CONN
*I *2060:D I *D sky130_fd_sc_hd__dfxtp_1
*I *1886:X O *D sky130_fd_sc_hd__mux2_1
*CAP
1 *2060:D 0.000116759
2 *1886:X 0.000116759
3 *2060:D *2060:CLK 9.03376e-05
4 *2060:D *272:35 0
5 *2060:D *278:102 0
*RES
1 *1886:X *2060:D 9.15375 
*END

*D_NET *156 0.000830866
*CONN
*I *2061:D I *D sky130_fd_sc_hd__dfxtp_1
*I *1887:X O *D sky130_fd_sc_hd__mux2_1
*CAP
1 *2061:D 0.000136797
2 *1887:X 0.000136797
3 *2061:D *1723:B1 9.54399e-05
4 *2061:D *407:439 0.000124151
5 *2061:D *416:184 9.37731e-05
6 *2061:D *430:67 0.000195621
7 *2061:D *452:89 4.82863e-05
*RES
1 *1887:X *2061:D 10.6388 
*END

*D_NET *157 0.00104171
*CONN
*I *2062:D I *D sky130_fd_sc_hd__dfxtp_1
*I *1888:X O *D sky130_fd_sc_hd__mux2_1
*CAP
1 *2062:D 0.000417881
2 *1888:X 0.000417881
3 *2062:D *1888:A0 0
4 *2062:D *345:8 0
5 *2062:D *353:12 7.75325e-05
6 *2062:D *453:29 3.86607e-05
7 *2021:D *2062:D 8.97564e-05
*RES
1 *1888:X *2062:D 14.6138 
*END

*D_NET *158 0.000467444
*CONN
*I *2063:D I *D sky130_fd_sc_hd__dfxtp_1
*I *1889:X O *D sky130_fd_sc_hd__mux2_1
*CAP
1 *2063:D 0.000105082
2 *1889:X 0.000105082
3 *2063:D *275:121 0.000128642
4 *2063:D *277:30 5.2325e-05
5 *2063:D *409:176 0
6 *2063:D *455:104 7.63125e-05
*RES
1 *1889:X *2063:D 10.0087 
*END

*D_NET *159 0.00151601
*CONN
*I *2064:D I *D sky130_fd_sc_hd__dfxtp_1
*I *1890:X O *D sky130_fd_sc_hd__mux2_1
*CAP
1 *2064:D 0.00030881
2 *1890:X 0.00030881
3 *2064:D *1826:S 0
4 *2064:D *1853:S 0.000542291
5 *2064:D *347:6 2.77183e-05
6 *2064:D *455:20 0.00027064
7 *2064:D *456:18 8.53113e-06
8 *2023:D *2064:D 4.92096e-05
*RES
1 *1890:X *2064:D 15.3337 
*END

*D_NET *160 0.000549948
*CONN
*I *2065:D I *D sky130_fd_sc_hd__dfxtp_1
*I *1891:X O *D sky130_fd_sc_hd__mux2_1
*CAP
1 *2065:D 0.000221769
2 *1891:X 0.000221769
3 *2065:D *283:10 0
4 *2065:D *456:22 0.00010641
*RES
1 *1891:X *2065:D 11.1938 
*END

*D_NET *161 0.0012254
*CONN
*I *2066:D I *D sky130_fd_sc_hd__dfxtp_1
*I *1892:X O *D sky130_fd_sc_hd__mux2_1
*CAP
1 *2066:D 0.000337691
2 *1892:X 0.000337691
3 *2066:D *1857:S 0
4 *2066:D *1875:A0 4.66108e-05
5 *2066:D *1875:A1 0
6 *2066:D *262:81 4.95861e-05
7 *2066:D *349:8 0
8 *2066:D *457:33 0.00013994
9 *2066:D *457:39 0.000252977
10 *2066:D *457:50 2.66935e-05
11 *2025:D *2066:D 3.42142e-05
*RES
1 *1892:X *2066:D 14.2688 
*END

*D_NET *162 0.000730733
*CONN
*I *2067:D I *D sky130_fd_sc_hd__dfxtp_1
*I *1893:X O *D sky130_fd_sc_hd__mux2_1
*CAP
1 *2067:D 0.000183824
2 *1893:X 0.000183824
3 *2067:D *1888:S 0.000162325
4 *2067:D *1893:A0 0
5 *2067:D *2080:A 0.00020076
*RES
1 *1893:X *2067:D 10.9537 
*END

*D_NET *163 0.018776
*CONN
*I *1725:A I *D sky130_fd_sc_hd__or2_1
*I *1719:A1 I *D sky130_fd_sc_hd__o21a_1
*I *1743:A1 I *D sky130_fd_sc_hd__o21a_1
*I *1646:A I *D sky130_fd_sc_hd__or2_1
*I *1656:A1 I *D sky130_fd_sc_hd__o21a_1
*I *1630:A I *D sky130_fd_sc_hd__or2_1
*I *1640:A1 I *D sky130_fd_sc_hd__o21a_1
*I *1735:A1 I *D sky130_fd_sc_hd__o21a_1
*I *1622:Y O *D sky130_fd_sc_hd__inv_2
*CAP
1 *1725:A 2.11983e-05
2 *1719:A1 0.00101601
3 *1743:A1 0
4 *1646:A 0.000384243
5 *1656:A1 0.000286182
6 *1630:A 0
7 *1640:A1 0
8 *1735:A1 0.000201627
9 *1622:Y 1.55584e-05
10 *163:108 0.00208408
11 *163:73 0.00138522
12 *163:36 0.000988509
13 *163:22 0.00106993
14 *163:20 0.00114834
15 *163:16 0.00028645
16 *163:8 0.00119838
17 *1646:A *1660:A2 0
18 *1646:A *1783:S 0.000166628
19 *1646:A *164:34 0
20 *1646:A *407:167 0
21 *1656:A1 *410:88 0.000138799
22 *1656:A1 *421:82 4.41832e-05
23 *1719:A1 *1688:A 0
24 *1719:A1 *1714:A 0.000362979
25 *1719:A1 *1725:B 0.000141599
26 *1719:A1 *265:101 0
27 *1719:A1 *265:110 0
28 *1719:A1 *408:574 0
29 *1725:A *304:12 4.82919e-05
30 *1735:A1 *1640:B1 0.000230229
31 *1735:A1 *1735:B1 0.000650004
32 *1735:A1 *1739:B2 0.000873021
33 *1735:A1 *164:86 7.71016e-05
34 *1735:A1 *176:14 0.000162318
35 *163:8 *1622:A 9.50342e-06
36 *163:8 *1623:A 2.7881e-05
37 *163:16 *1622:A 8.53113e-06
38 *163:16 *1762:S 4.21973e-05
39 *163:16 *1949:CLK 0.000146654
40 *163:16 *164:8 0.000158965
41 *163:16 *263:110 0
42 *163:16 *410:43 1.91597e-05
43 *163:20 *1743:A2 7.36562e-05
44 *163:20 *1747:B2 2.14129e-05
45 *163:20 *164:18 0.000372784
46 *163:20 *267:71 9.0517e-05
47 *163:22 *1636:A1 0.00015428
48 *163:22 *164:18 7.06865e-05
49 *163:22 *263:95 0
50 *163:22 *263:110 0
51 *163:22 *267:71 0.000270457
52 *163:22 *416:138 1.26548e-05
53 *163:36 *1644:A2 1.83756e-05
54 *163:36 *1747:B1 0.0001032
55 *163:36 *263:95 0
56 *163:36 *267:56 2.97004e-06
57 *163:36 *267:71 0.00027892
58 *163:36 *270:30 0.000237249
59 *163:36 *422:26 0.00027299
60 *163:73 *1742:A3 0.000159088
61 *163:73 *1771:A1 0.000122331
62 *163:73 *1780:A1 0.000244017
63 *163:73 *410:88 0.000400433
64 *163:73 *454:129 0.000608349
65 *163:108 *1623:A 4.43871e-06
66 *163:108 *1724:A0 0.000789698
67 *163:108 *1731:A1 2.97004e-06
68 *163:108 *1949:CLK 4.60584e-05
69 *163:108 *304:12 0.000239807
70 *163:108 *425:16 0.000272978
71 *163:108 *425:40 1.46744e-05
72 *1931:D *163:73 0.000313114
73 *1933:D *1646:A 0
74 *1947:D *1719:A1 3.76596e-05
75 *1962:D *163:36 1.19928e-05
76 *2055:D *1646:A 0
77 *2055:D *163:73 0.000128642
78 *29:12 *163:36 5.83121e-06
*RES
1 *1622:Y *163:8 4.215 
2 *163:8 *163:16 5.24 
3 *163:16 *163:20 6.695 
4 *163:20 *163:22 7.755 
5 *163:22 *163:36 21.57 
6 *163:36 *1735:A1 15.53 
7 *163:36 *1640:A1 1.6 
8 *163:22 *1630:A 3.6 
9 *163:20 *163:73 17.18 
10 *163:73 *1656:A1 5.425 
11 *163:73 *1646:A 12.59 
12 *163:16 *1743:A1 1.6 
13 *163:8 *163:108 18.355 
14 *163:108 *1719:A1 21.855 
15 *163:108 *1725:A 4.05 
*END

*D_NET *164 0.0202146
*CONN
*I *1731:B2 I *D sky130_fd_sc_hd__a22o_1
*I *1747:B2 I *D sky130_fd_sc_hd__a22o_1
*I *1723:B2 I *D sky130_fd_sc_hd__a22o_1
*I *1644:B2 I *D sky130_fd_sc_hd__a22o_1
*I *1739:B2 I *D sky130_fd_sc_hd__a22o_1
*I *1636:B2 I *D sky130_fd_sc_hd__a22o_1
*I *1660:B2 I *D sky130_fd_sc_hd__a22o_1
*I *1652:B2 I *D sky130_fd_sc_hd__a22o_1
*I *1623:Y O *D sky130_fd_sc_hd__inv_2
*CAP
1 *1731:B2 0.000300523
2 *1747:B2 0.00023487
3 *1723:B2 0.00182412
4 *1644:B2 6.19402e-06
5 *1739:B2 0.000707026
6 *1636:B2 5.78235e-05
7 *1660:B2 3.24245e-05
8 *1652:B2 0.00023513
9 *1623:Y 0
10 *164:86 0.0019233
11 *164:73 0.00130987
12 *164:34 0.000972207
13 *164:20 0.00100869
14 *164:18 0.00143613
15 *164:8 0.000997958
16 *164:4 0.000383551
17 *1636:B2 *1629:S0 0.000231564
18 *1636:B2 *410:53 0.000132713
19 *1644:B2 *1640:A2 2.10433e-05
20 *1644:B2 *1644:B1 4.55864e-06
21 *1644:B2 *265:34 3.63701e-06
22 *1652:B2 *1652:A1 8.28205e-05
23 *1652:B2 *1652:B1 1.83847e-05
24 *1652:B2 *1660:A1 2.10034e-05
25 *1660:B2 *1652:A2 4.18603e-06
26 *1660:B2 *1652:B1 0
27 *1660:B2 *421:10 7.23602e-05
28 *1723:B2 *270:16 0.000148956
29 *1723:B2 *407:248 0.000150623
30 *1731:B2 *1762:S 4.66742e-05
31 *1731:B2 *2078:A 0.000416923
32 *1731:B2 *409:133 0.000142614
33 *1731:B2 *410:39 0.000275572
34 *1731:B2 *425:8 0.000161529
35 *1739:B2 *1640:B1 4.21973e-05
36 *1739:B2 *1735:B1 6.90876e-05
37 *1739:B2 *1739:A1 2.94604e-05
38 *1739:B2 *1739:A2 7.10578e-05
39 *1739:B2 *1739:B1 2.49909e-05
40 *1739:B2 *1779:S 0.000176633
41 *1739:B2 *270:30 2.94764e-05
42 *1747:B2 *1622:A 0
43 *1747:B2 *1747:A1 0
44 *1747:B2 *1949:CLK 2.80443e-05
45 *1747:B2 *267:71 0
46 *1747:B2 *409:148 0
47 *1747:B2 *417:12 8.65905e-05
48 *164:8 *1762:S 6.61795e-05
49 *164:8 *410:39 4.82919e-05
50 *164:8 *410:43 0.000307054
51 *164:18 *1780:A1 5.28562e-05
52 *164:18 *1796:A1 0
53 *164:18 *1949:CLK 7.36484e-05
54 *164:18 *416:138 0.000146115
55 *164:18 *424:8 0.000158072
56 *164:34 *1652:B1 0
57 *164:34 *1762:A0 7.4027e-05
58 *164:34 *1774:S 0.000608338
59 *164:34 *1783:A1 0.000108031
60 *164:34 *1783:S 0
61 *164:34 *1880:A0 4.66108e-05
62 *164:34 *1880:A1 0.000162311
63 *164:34 *1880:S 2.75229e-05
64 *164:34 *407:167 0.000301719
65 *164:34 *421:10 9.14049e-05
66 *164:34 *454:20 1.52776e-05
67 *164:34 *454:22 0.000151147
68 *164:34 *454:26 5.21046e-05
69 *164:73 *1629:S0 0
70 *164:73 *1640:B1 2.49909e-05
71 *164:73 *1917:CLK 0
72 *164:73 *176:14 0
73 *164:73 *264:68 0.000958519
74 *164:73 *265:34 0.000145318
75 *164:73 *270:30 4.01778e-05
76 *164:86 *1640:A2 0.000142941
77 *164:86 *1640:B1 0.000162325
78 *164:86 *176:14 5.98004e-06
79 *164:86 *265:34 7.09019e-05
80 *1646:A *164:34 0
81 *1735:A1 *1739:B2 0.000873021
82 *1735:A1 *164:86 7.71016e-05
83 *1916:D *164:73 9.05299e-05
84 *1918:D *1652:B2 4.82863e-05
85 *1942:D *164:73 0.000487978
86 *2055:D *164:34 4.94326e-05
87 *163:16 *164:8 0.000158965
88 *163:20 *1747:B2 2.14129e-05
89 *163:20 *164:18 0.000372784
90 *163:22 *164:18 7.06865e-05
*RES
1 *1623:Y *164:4 1.6 
2 *164:4 *164:8 5.21 
3 *164:8 *164:18 13.295 
4 *164:18 *164:20 3.21 
5 *164:20 *164:34 22.53 
6 *164:34 *1652:B2 6.99 
7 *164:34 *1660:B2 4.47 
8 *164:20 *1636:B2 8.255 
9 *164:18 *164:73 18.595 
10 *164:73 *1739:B2 15.085 
11 *164:73 *164:86 5.5475 
12 *164:86 *1644:B2 3.8325 
13 *164:86 *1723:B2 10.7942 
14 *164:8 *1747:B2 7.605 
15 *164:4 *1731:B2 10.345 
*END

*D_NET *165 0.00635972
*CONN
*I *1748:A I *D sky130_fd_sc_hd__nor2_2
*I *1672:A1 I *D sky130_fd_sc_hd__o2111a_1
*I *1670:A1 I *D sky130_fd_sc_hd__a21oi_1
*I *1713:A I *D sky130_fd_sc_hd__xnor2_1
*I *1803:A I *D sky130_fd_sc_hd__and2_2
*I *1624:Y O *D sky130_fd_sc_hd__inv_2
*CAP
1 *1748:A 7.1136e-05
2 *1672:A1 0.000322301
3 *1670:A1 0
4 *1713:A 2.08101e-05
5 *1803:A 0.000179953
6 *1624:Y 0
7 *165:42 0.00134716
8 *165:29 0.00166923
9 *165:21 0.00078433
10 *165:4 0.000269581
11 *1672:A1 *1670:A2 2.75145e-05
12 *1672:A1 *1672:C1 1.33293e-05
13 *1672:A1 *1922:D 0
14 *1672:A1 *199:12 0.000295386
15 *1672:A1 *438:99 4.92206e-05
16 *1672:A1 *438:155 4.31189e-05
17 *1748:A *1711:A1 1.03833e-05
18 *1748:A *1711:A2 1.91597e-05
19 *1748:A *1711:B1 0.000122337
20 *1748:A *232:10 8.49205e-05
21 *1803:A *1624:A 0.000122337
22 *1803:A *1803:B 0.000107056
23 *1803:A *1822:B 9.53428e-06
24 *1803:A *1885:D 4.66108e-05
25 *1803:A *413:36 4.60584e-05
26 *165:21 *1711:A2 7.90461e-05
27 *165:21 *450:226 0
28 *165:29 *1706:A1 7.43206e-05
29 *165:29 *1711:A1 3.24583e-05
30 *165:29 *1711:A2 1.61696e-05
31 *165:29 *1997:CLK 2.11084e-05
32 *165:29 *1997:D 4.99619e-05
33 *165:29 *1997:RESET_B 0.00015737
34 *165:29 *232:10 0
35 *165:29 *411:164 4.80182e-05
36 *165:29 *411:179 2.0141e-05
37 *165:42 *1672:C1 3.07153e-05
38 *165:42 *1706:A1 6.98204e-05
39 *165:42 *1713:B 9.91257e-05
*RES
1 *1624:Y *165:4 1.6 
2 *165:4 *1803:A 5.545 
3 *165:4 *165:21 3.7625 
4 *165:21 *165:29 10.6175 
5 *165:29 *1713:A 1.96 
6 *165:29 *165:42 13.68 
7 *165:42 *1670:A1 1.6 
8 *165:42 *1672:A1 11.855 
9 *165:21 *1748:A 5.4225 
*END

*D_NET *166 0.000731131
*CONN
*I *1677:A2 I *D sky130_fd_sc_hd__a221o_1
*I *1625:Y O *D sky130_fd_sc_hd__inv_2
*CAP
1 *1677:A2 0.00018466
2 *1625:Y 0.00018466
3 *1677:A2 *1627:A 4.82863e-05
4 *1677:A2 *1675:A_N 4.82863e-05
5 *1677:A2 *1677:B2 8.23457e-05
6 *1677:A2 *216:18 2.87433e-05
7 *1677:A2 *446:10 2.59926e-05
8 *1677:A2 *462:29 0.000128157
9 *1677:A2 *485:8 0
*RES
1 *1625:Y *1677:A2 11.1525 
*END

*D_NET *167 0.00156245
*CONN
*I *1678:A2 I *D sky130_fd_sc_hd__o221ai_2
*I *1679:A2 I *D sky130_fd_sc_hd__a221o_1
*I *1626:Y O *D sky130_fd_sc_hd__inv_2
*CAP
1 *1678:A2 8.14745e-05
2 *1679:A2 5.90267e-05
3 *1626:Y 0.000303762
4 *167:6 0.000444263
5 *1678:A2 *1929:D 0
6 *1679:A2 *1678:B1 0.000139252
7 *1679:A2 *1679:A1 1.2818e-05
8 *1679:A2 *169:6 1.2818e-05
9 *1679:A2 *215:12 5.21046e-05
10 *167:6 *1678:C1 0.000122337
11 *167:6 *1679:C1 0.000122337
12 *167:6 *1929:D 7.73773e-05
13 *167:6 *458:18 8.65961e-05
14 *167:6 *461:14 4.82863e-05
*RES
1 *1626:Y *167:6 6.88 
2 *167:6 *1679:A2 7.35875 
3 *167:6 *1678:A2 2.755 
*END

*D_NET *168 0.000525284
*CONN
*I *1677:B2 I *D sky130_fd_sc_hd__a221o_1
*I *1627:Y O *D sky130_fd_sc_hd__inv_2
*CAP
1 *1677:B2 0.000115096
2 *1627:Y 0.000115096
3 *1677:B2 *1675:A_N 0.000114492
4 *1677:B2 *1677:B1 8.525e-06
5 *1677:B2 *1677:C1 6.47594e-05
6 *1677:B2 *216:18 2.49708e-05
7 *1677:A2 *1677:B2 8.23457e-05
*RES
1 *1627:Y *1677:B2 9.615 
*END

*D_NET *169 0.000834068
*CONN
*I *1678:B1 I *D sky130_fd_sc_hd__o221ai_2
*I *1679:B1 I *D sky130_fd_sc_hd__a221o_1
*I *1628:Y O *D sky130_fd_sc_hd__inv_2
*CAP
1 *1678:B1 0.000101264
2 *1679:B1 5.2541e-05
3 *1628:Y 8.5707e-05
4 *169:6 0.000239512
5 *1678:B1 *1628:A 0
6 *1678:B1 *215:12 1.94636e-05
7 *1678:B1 *458:12 1.22762e-05
8 *1678:B1 *458:18 6.23375e-05
9 *1678:B1 *483:10 0
10 *1679:B1 *1679:A1 5.83121e-06
11 *169:6 *1679:A1 0.000103067
12 *1679:A2 *1678:B1 0.000139252
13 *1679:A2 *169:6 1.2818e-05
*RES
1 *1628:Y *169:6 3.43 
2 *169:6 *1679:B1 2.41 
3 *169:6 *1678:B1 8 
*END

*D_NET *170 0.00075321
*CONN
*I *1630:B I *D sky130_fd_sc_hd__or2_1
*I *1629:X O *D sky130_fd_sc_hd__mux4_1
*CAP
1 *1630:B 0.00018635
2 *1629:X 0.00018635
3 *1630:B *1781:A0 8.23457e-05
4 *1630:B *1781:A1 0.000232105
5 *1630:B *1781:S 2.16917e-05
6 *1630:B *231:45 4.43682e-05
*RES
1 *1629:X *1630:B 6.755 
*END

*D_NET *171 0.00181015
*CONN
*I *1636:A1 I *D sky130_fd_sc_hd__a22o_1
*I *1630:X O *D sky130_fd_sc_hd__or2_1
*CAP
1 *1636:A1 0.000669042
2 *1630:X 0.000669042
3 *1636:A1 *1636:A2 3.00381e-05
4 *1636:A1 *263:95 4.91189e-05
5 *1636:A1 *263:110 6.31804e-05
6 *1636:A1 *424:14 0.000122331
7 *1636:A1 *424:25 3.57349e-05
8 *1916:D *1636:A1 1.7386e-05
9 *163:22 *1636:A1 0.00015428
*RES
1 *1630:X *1636:A1 18.405 
*END

*D_NET *172 0.00349665
*CONN
*I *1632:A2 I *D sky130_fd_sc_hd__o21a_1
*I *1631:X O *D sky130_fd_sc_hd__mux4_1
*CAP
1 *1632:A2 0.00107796
2 *1631:X 0.00107796
3 *1632:A2 *407:69 0.000114024
4 *1632:A2 *407:71 0.000802439
5 *1632:A2 *409:160 2.75145e-05
6 *1632:A2 *409:166 0.000269261
7 *1632:A2 *436:48 0.000127485
*RES
1 *1631:X *1632:A2 22.97 
*END

*D_NET *173 0.000317937
*CONN
*I *1636:A2 I *D sky130_fd_sc_hd__a22o_1
*I *1632:X O *D sky130_fd_sc_hd__o21a_1
*CAP
1 *1636:A2 0.000143949
2 *1632:X 0.000143949
3 *1636:A1 *1636:A2 3.00381e-05
*RES
1 *1632:X *1636:A2 5.39 
*END

*D_NET *174 0.00370138
*CONN
*I *1635:A0 I *D sky130_fd_sc_hd__mux2_1
*I *1633:X O *D sky130_fd_sc_hd__mux4_1
*CAP
1 *1635:A0 0.000934974
2 *1633:X 0.000934974
3 *1635:A0 *1633:A2 2.86623e-05
4 *1635:A0 *1633:S0 0
5 *1635:A0 *1634:A2 0
6 *1635:A0 *1634:S1 0.00063631
7 *1635:A0 *1635:A1 4.82919e-05
8 *1635:A0 *1635:S 0.000275553
9 *1635:A0 *1736:S1 0.000165983
10 *1635:A0 *1864:A0 0.000165761
11 *1635:A0 *273:52 4.58166e-05
12 *1635:A0 *363:12 7.26551e-05
13 *1635:A0 *408:158 0.000230869
14 *1635:A0 *426:32 0
15 *1635:A0 *455:55 0
16 *1635:A0 *455:104 0.000161529
*RES
1 *1633:X *1635:A0 27.57 
*END

*D_NET *175 0.000589802
*CONN
*I *1635:A1 I *D sky130_fd_sc_hd__mux2_1
*I *1634:X O *D sky130_fd_sc_hd__mux4_1
*CAP
1 *1635:A1 0.000161983
2 *1634:X 0.000161983
3 *1635:A1 *274:31 7.74981e-05
4 *1635:A1 *274:53 5.94456e-06
5 *1635:A1 *426:98 9.54399e-05
6 *1635:A0 *1635:A1 4.82919e-05
7 *2016:D *1635:A1 3.86607e-05
*RES
1 *1634:X *1635:A1 10.56 
*END

*D_NET *176 0.00812266
*CONN
*I *1636:B1 I *D sky130_fd_sc_hd__a22o_1
*I *1635:X O *D sky130_fd_sc_hd__mux2_1
*CAP
1 *1636:B1 0
2 *1635:X 0.00184723
3 *176:14 0.00184723
4 *176:14 *1629:A2 0.000136877
5 *176:14 *1629:S0 0.000309169
6 *176:14 *1639:A2 5.23362e-05
7 *176:14 *1639:A3 0.000131866
8 *176:14 *1639:S1 0.00111467
9 *176:14 *1640:A2 9.16237e-05
10 *176:14 *1772:A1 0
11 *176:14 *1772:S 2.7881e-05
12 *176:14 *1773:A1 0
13 *176:14 *1781:A1 0
14 *176:14 *1845:A0 3.90266e-05
15 *176:14 *1854:A1 0.000141599
16 *176:14 *1854:S 9.76522e-05
17 *176:14 *1889:A0 0
18 *176:14 *264:26 0.000163339
19 *176:14 *265:34 0
20 *176:14 *265:55 0
21 *176:14 *273:52 8.57024e-05
22 *176:14 *274:31 6.55328e-05
23 *176:14 *275:111 6.36578e-05
24 *176:14 *277:30 2.16389e-05
25 *176:14 *278:22 0
26 *176:14 *408:384 3.97957e-05
27 *176:14 *454:28 0
28 *176:14 *454:34 0
29 *176:14 *455:104 0
30 *176:14 *456:84 0.00100795
31 *1735:A1 *176:14 0.000162318
32 *1942:D *176:14 0
33 *1962:D *176:14 0
34 *1973:D *176:14 0.000669574
35 *164:73 *176:14 0
36 *164:86 *176:14 5.98004e-06
*RES
1 *1635:X *176:14 49.95 
2 *176:14 *1636:B1 3.6 
*END

*D_NET *177 0.00380189
*CONN
*I *1638:B I *D sky130_fd_sc_hd__or2_1
*I *1637:X O *D sky130_fd_sc_hd__mux4_1
*CAP
1 *1638:B 0.00124747
2 *1637:X 0.00124747
3 *1638:B *1652:B1 0.00042985
4 *1638:B *1735:A2 0.000134938
5 *1638:B *1879:A1 8.59944e-05
6 *1638:B *1879:S 0.000427876
7 *1638:B *1935:CLK 1.56428e-05
8 *1638:B *1943:CLK 4.82919e-05
9 *1638:B *197:16 0
10 *1948:D *1638:B 7.7764e-05
11 *2054:D *1638:B 8.65961e-05
*RES
1 *1637:X *1638:B 27.66 
*END

*D_NET *178 0.00204306
*CONN
*I *1644:A1 I *D sky130_fd_sc_hd__a22o_1
*I *1638:X O *D sky130_fd_sc_hd__or2_1
*CAP
1 *1644:A1 0.000806873
2 *1638:X 0.000806873
3 *1644:A1 *1638:A 5.83121e-06
4 *1644:A1 *1639:A1 1.35742e-05
5 *1644:A1 *1943:CLK 1.19928e-05
6 *1644:A1 *267:32 0.000225473
7 *1917:D *1644:A1 9.98734e-06
8 *1943:D *1644:A1 0.000162455
*RES
1 *1638:X *1644:A1 12.98 
*END

*D_NET *179 0.000775595
*CONN
*I *1640:A2 I *D sky130_fd_sc_hd__o21a_1
*I *1639:X O *D sky130_fd_sc_hd__mux4_1
*CAP
1 *1640:A2 0.000184049
2 *1639:X 0.000184049
3 *1640:A2 *1644:B1 1.32017e-05
4 *1640:A2 *263:32 8.65905e-05
5 *1644:B2 *1640:A2 2.10433e-05
6 *1962:D *1640:A2 5.20968e-05
7 *164:86 *1640:A2 0.000142941
8 *176:14 *1640:A2 9.16237e-05
*RES
1 *1639:X *1640:A2 11.415 
*END

*D_NET *180 0.000373315
*CONN
*I *1644:A2 I *D sky130_fd_sc_hd__a22o_1
*I *1640:X O *D sky130_fd_sc_hd__o21a_1
*CAP
1 *1644:A2 7.73641e-05
2 *1640:X 7.73641e-05
3 *1644:A2 *265:34 8.49583e-05
4 *1962:D *1644:A2 0.000115253
5 *163:36 *1644:A2 1.83756e-05
*RES
1 *1640:X *1644:A2 9.03 
*END

*D_NET *181 0.00341719
*CONN
*I *1643:A0 I *D sky130_fd_sc_hd__mux2_1
*I *1641:X O *D sky130_fd_sc_hd__mux4_1
*CAP
1 *1643:A0 0.00126155
2 *1641:X 0.00126155
3 *1643:A0 *1641:A0 0
4 *1643:A0 *1641:A2 2.46495e-05
5 *1643:A0 *1641:A3 4.13249e-05
6 *1643:A0 *1641:S1 0
7 *1643:A0 *1643:A1 0.000239813
8 *1643:A0 *1828:S 0
9 *1643:A0 *1864:S 0
10 *1643:A0 *1865:A0 8.09021e-06
11 *1643:A0 *1891:A0 5.35969e-06
12 *1643:A0 *1970:CLK 8.78813e-05
13 *1643:A0 *275:44 0.000205372
14 *1643:A0 *429:12 7.70938e-05
15 *1643:A0 *429:73 0.000138977
16 *1643:A0 *429:84 6.55406e-05
*RES
1 *1641:X *1643:A0 28.005 
*END

*D_NET *182 0.00298222
*CONN
*I *1643:A1 I *D sky130_fd_sc_hd__mux2_1
*I *1642:X O *D sky130_fd_sc_hd__mux4_1
*CAP
1 *1643:A1 0.000746287
2 *1642:X 0.000746287
3 *1643:A1 *1642:A0 5.81675e-05
4 *1643:A1 *1642:A1 4.29016e-05
5 *1643:A1 *1642:A2 1.60083e-05
6 *1643:A1 *1642:A3 8.89876e-05
7 *1643:A1 *1642:S0 2.11084e-05
8 *1643:A1 *1644:B1 2.20732e-05
9 *1643:A1 *1810:A1 5.96716e-05
10 *1643:A1 *2003:CLK 0.000354725
11 *1643:A1 *276:117 0.000386052
12 *1643:A1 *407:449 3.52139e-06
13 *1643:A1 *407:463 1.36454e-05
14 *1643:A1 *429:73 0.000109533
15 *1643:A1 *429:84 7.34364e-05
16 *1643:A0 *1643:A1 0.000239813
*RES
1 *1642:X *1643:A1 21.855 
*END

*D_NET *183 0.00701782
*CONN
*I *1644:B1 I *D sky130_fd_sc_hd__a22o_1
*I *1643:X O *D sky130_fd_sc_hd__mux2_1
*CAP
1 *1644:B1 0.00181263
2 *1643:X 0.00181263
3 *1644:B1 *1639:S1 0
4 *1644:B1 *1744:A2 0.000137571
5 *1644:B1 *1744:S0 0
6 *1644:B1 *1746:A1 0
7 *1644:B1 *1747:B1 0
8 *1644:B1 *1782:A1 0.000402743
9 *1644:B1 *1808:A1 0.000300212
10 *1644:B1 *1838:A1 1.39431e-05
11 *1644:B1 *1838:S 0.000251577
12 *1644:B1 *1845:A1 0.000173199
13 *1644:B1 *2003:CLK 6.69341e-05
14 *1644:B1 *262:81 0
15 *1644:B1 *265:34 0.000374561
16 *1644:B1 *272:84 0.000355889
17 *1644:B1 *273:46 0.000196406
18 *1644:B1 *273:52 8.65905e-05
19 *1644:B1 *386:14 0.000296088
20 *1644:B1 *408:239 0.000348762
21 *1644:B1 *454:53 0.000166877
22 *1644:B1 *456:84 0
23 *1640:A2 *1644:B1 1.32017e-05
24 *1643:A1 *1644:B1 2.20732e-05
25 *1644:B2 *1644:B1 4.55864e-06
26 *1962:D *1644:B1 0.000181376
*RES
1 *1643:X *1644:B1 45.435 
*END

*D_NET *184 0.00325428
*CONN
*I *1646:B I *D sky130_fd_sc_hd__or2_1
*I *1645:X O *D sky130_fd_sc_hd__mux4_1
*CAP
1 *1646:B 0.00100734
2 *1645:X 0.00100734
3 *1646:B *1645:A3 0.00011964
4 *1646:B *1647:S1 4.84393e-05
5 *1646:B *1652:A1 5.90938e-05
6 *1646:B *1654:B 0.000275553
7 *1646:B *1660:A1 0.000464505
8 *1646:B *1883:S 0
9 *1646:B *2073:A 7.67345e-05
10 *1646:B *266:65 1.08758e-05
11 *1646:B *408:484 4.43871e-06
12 *1646:B *408:493 0.000180321
*RES
1 *1645:X *1646:B 23.76 
*END

*D_NET *185 0.0011066
*CONN
*I *1652:A1 I *D sky130_fd_sc_hd__a22o_1
*I *1646:X O *D sky130_fd_sc_hd__or2_1
*CAP
1 *1652:A1 0.000177351
2 *1646:X 0.000177351
3 *1652:A1 *1660:A1 0.000154081
4 *1646:B *1652:A1 5.90938e-05
5 *1652:B2 *1652:A1 8.28205e-05
6 *1918:D *1652:A1 0.000455903
*RES
1 *1646:X *1652:A1 8.84 
*END

*D_NET *186 0.00187256
*CONN
*I *1648:A2 I *D sky130_fd_sc_hd__o21a_1
*I *1647:X O *D sky130_fd_sc_hd__mux4_1
*CAP
1 *1648:A2 0.000685672
2 *1647:X 0.000685672
3 *1648:A2 *1647:A2 0.00013412
4 *1648:A2 *1647:A3 4.3344e-05
5 *1648:A2 *1647:S0 1.83756e-05
6 *1648:A2 *1647:S1 0
7 *1648:A2 *1654:A 1.60203e-05
8 *1648:A2 *266:53 0.00012657
9 *1648:A2 *409:255 4.82919e-05
10 *1984:D *1648:A2 0.000114492
*RES
1 *1647:X *1648:A2 16.875 
*END

*D_NET *187 0.000294439
*CONN
*I *1652:A2 I *D sky130_fd_sc_hd__a22o_1
*I *1648:X O *D sky130_fd_sc_hd__o21a_1
*CAP
1 *1652:A2 0.00012988
2 *1648:X 0.00012988
3 *1652:A2 *1648:B1 2.75229e-05
4 *1652:A2 *1652:B1 2.97004e-06
5 *1652:A2 *1654:A 0
6 *1652:A2 *421:10 0
7 *1660:B2 *1652:A2 4.18603e-06
*RES
1 *1648:X *1652:A2 9.03 
*END

*D_NET *188 0.000528096
*CONN
*I *1651:A0 I *D sky130_fd_sc_hd__mux2_1
*I *1649:X O *D sky130_fd_sc_hd__mux4_1
*CAP
1 *1651:A0 0.000141936
2 *1649:X 0.000141936
3 *1651:A0 *1652:B1 0
4 *1651:A0 *2022:CLK 3.45679e-05
5 *1651:A0 *2050:CLK 6.36578e-05
6 *1651:A0 *197:16 0.000141599
7 *1651:A0 *408:247 4.39911e-06
*RES
1 *1649:X *1651:A0 9.975 
*END

*D_NET *189 0.00329026
*CONN
*I *1651:A1 I *D sky130_fd_sc_hd__mux2_1
*I *1650:X O *D sky130_fd_sc_hd__mux4_1
*CAP
1 *1651:A1 0.00121884
2 *1650:X 0.00121884
3 *1651:A1 *1649:A2 6.50848e-06
4 *1651:A1 *1649:A3 0.000197694
5 *1651:A1 *1857:A1 0.000311282
6 *1651:A1 *1875:S 0.000103192
7 *1651:A1 *2050:CLK 4.80182e-05
8 *1651:A1 *253:12 0
9 *1651:A1 *457:39 8.52003e-06
10 *1651:A1 *457:50 5.062e-06
11 *2025:D *1651:A1 5.35969e-06
12 *2050:D *1651:A1 0.000166951
*RES
1 *1650:X *1651:A1 22.665 
*END

*D_NET *190 0.00688872
*CONN
*I *1652:B1 I *D sky130_fd_sc_hd__a22o_1
*I *1651:X O *D sky130_fd_sc_hd__mux2_1
*CAP
1 *1652:B1 0.00148913
2 *1651:X 0.00148913
3 *1652:B1 *1645:A1 0.000180675
4 *1652:B1 *1660:A1 4.82919e-05
5 *1652:B1 *1779:S 6.63913e-05
6 *1652:B1 *1783:A0 0.000139238
7 *1652:B1 *1784:A0 0
8 *1652:B1 *1945:CLK 0.000207311
9 *1652:B1 *2050:CLK 4.78807e-05
10 *1652:B1 *197:16 0
11 *1652:B1 *253:12 0.00148342
12 *1652:B1 *309:14 0.000139238
13 *1652:B1 *407:69 0
14 *1652:B1 *408:402 9.22701e-05
15 *1652:B1 *408:484 0.000195043
16 *1652:B1 *416:138 9.28092e-05
17 *1652:B1 *421:10 0
18 *1638:B *1652:B1 0.00042985
19 *1651:A0 *1652:B1 0
20 *1652:A2 *1652:B1 2.97004e-06
21 *1652:B2 *1652:B1 1.83847e-05
22 *1660:B2 *1652:B1 0
23 *1945:D *1652:B1 0.000494367
24 *1952:D *1652:B1 0
25 *1953:D *1652:B1 0.000272313
26 *164:34 *1652:B1 0
*RES
1 *1651:X *1652:B1 46.59 
*END

*D_NET *191 0.00169545
*CONN
*I *1654:B I *D sky130_fd_sc_hd__or2_1
*I *1653:X O *D sky130_fd_sc_hd__mux4_1
*CAP
1 *1654:B 0.000521917
2 *1653:X 0.000521917
3 *1654:B *1653:S1 0.000376066
4 *1646:B *1654:B 0.000275553
*RES
1 *1653:X *1654:B 12.965 
*END

*D_NET *192 0.000904643
*CONN
*I *1660:A1 I *D sky130_fd_sc_hd__a22o_1
*I *1654:X O *D sky130_fd_sc_hd__or2_1
*CAP
1 *1660:A1 0.000108381
2 *1654:X 0.000108381
3 *1646:B *1660:A1 0.000464505
4 *1652:A1 *1660:A1 0.000154081
5 *1652:B1 *1660:A1 4.82919e-05
6 *1652:B2 *1660:A1 2.10034e-05
*RES
1 *1654:X *1660:A1 7.445 
*END

*D_NET *193 0.00159677
*CONN
*I *1656:A2 I *D sky130_fd_sc_hd__o21a_1
*I *1655:X O *D sky130_fd_sc_hd__mux4_1
*CAP
1 *1656:A2 0.00040199
2 *1655:X 0.00040199
3 *1656:A2 *1660:B1 0.000648862
4 *1656:A2 *1784:A0 7.63204e-05
5 *1656:A2 *1945:CLK 0
6 *1656:A2 *408:394 5.05017e-05
7 *1952:D *1656:A2 1.71013e-05
*RES
1 *1655:X *1656:A2 15.84 
*END

*D_NET *194 0.00115881
*CONN
*I *1660:A2 I *D sky130_fd_sc_hd__a22o_1
*I *1656:X O *D sky130_fd_sc_hd__o21a_1
*CAP
1 *1660:A2 0.00022226
2 *1656:X 0.00022226
3 *1660:A2 *1648:B1 0.000282011
4 *1660:A2 *1783:S 0.000316118
5 *1660:A2 *421:78 0.000116158
6 *1646:A *1660:A2 0
*RES
1 *1656:X *1660:A2 13.47 
*END

*D_NET *195 0.000419891
*CONN
*I *1659:A0 I *D sky130_fd_sc_hd__mux2_1
*I *1657:X O *D sky130_fd_sc_hd__mux4_1
*CAP
1 *1659:A0 6.22883e-05
2 *1657:X 6.22883e-05
3 *1659:A0 *1659:A1 4.58257e-05
4 *1659:A0 *2006:CLK 0.000198945
5 *1659:A0 *197:16 5.05437e-05
*RES
1 *1657:X *1659:A0 5.39 
*END

*D_NET *196 0.00293289
*CONN
*I *1659:A1 I *D sky130_fd_sc_hd__mux2_1
*I *1658:X O *D sky130_fd_sc_hd__mux4_1
*CAP
1 *1659:A1 0.00124943
2 *1658:X 0.00124943
3 *1659:A1 *1657:A0 8.23457e-05
4 *1659:A1 *1657:A2 9.3229e-06
5 *1659:A1 *1657:A3 0.000129107
6 *1659:A1 *2006:CLK 1.33293e-05
7 *1659:A1 *197:16 8.8266e-05
8 *1659:A1 *408:278 6.58339e-05
9 *1659:A0 *1659:A1 4.58257e-05
*RES
1 *1658:X *1659:A1 17.72 
*END

*D_NET *197 0.00827871
*CONN
*I *1660:B1 I *D sky130_fd_sc_hd__a22o_1
*I *1659:X O *D sky130_fd_sc_hd__mux2_1
*CAP
1 *1660:B1 0.000495772
2 *1659:X 0.00182258
3 *197:16 0.00231835
4 *1660:B1 *1648:B1 0.000547777
5 *1660:B1 *1783:S 0
6 *1660:B1 *1784:A0 1.01945e-05
7 *1660:B1 *409:166 0
8 *1660:B1 *421:10 0.000376614
9 *197:16 *1779:S 0.000202686
10 *197:16 *1784:A0 4.80429e-05
11 *197:16 *1943:CLK 0.000183043
12 *197:16 *2050:CLK 2.75538e-05
13 *197:16 *2056:CLK 0.000153794
14 *197:16 *272:84 4.88568e-05
15 *197:16 *409:166 0
16 *197:16 *409:174 0
17 *197:16 *409:176 0
18 *197:16 *409:180 0
19 *197:16 *428:17 9.19758e-05
20 *197:16 *428:19 5.51245e-05
21 *197:16 *428:23 2.96466e-05
22 *197:16 *428:66 0.000128899
23 *197:16 *428:82 5.93844e-05
24 *197:16 *434:72 0.000543977
25 *1638:B *197:16 0
26 *1651:A0 *197:16 0.000141599
27 *1652:B1 *197:16 0
28 *1656:A2 *1660:B1 0.000648862
29 *1659:A0 *197:16 5.05437e-05
30 *1659:A1 *197:16 8.8266e-05
31 *1935:D *197:16 9.54469e-05
32 *1952:D *1660:B1 6.02912e-05
33 *2057:D *197:16 4.94326e-05
*RES
1 *1659:X *197:16 40.8225 
2 *197:16 *1660:B1 17.8575 
*END

*D_NET *198 0.00236026
*CONN
*I *1670:A2 I *D sky130_fd_sc_hd__a21oi_1
*I *1662:B I *D sky130_fd_sc_hd__xnor2_1
*I *1672:A2 I *D sky130_fd_sc_hd__o2111a_1
*I *1661:X O *D sky130_fd_sc_hd__xor2_1
*CAP
1 *1670:A2 6.89653e-05
2 *1662:B 7.58875e-05
3 *1672:A2 0.000134779
4 *1661:X 9.81893e-05
5 *198:12 0.000256565
6 *198:10 0.000213053
7 *1662:B *199:12 2.49909e-05
8 *1670:A2 *1672:C1 9.27326e-05
9 *1672:A2 *1663:B 4.41506e-05
10 *1672:A2 *1672:C1 0.000294414
11 *1672:A2 *1672:D1 8.23457e-05
12 *1672:A2 *199:18 5.83121e-06
13 *1672:A2 *438:87 0.000180682
14 *1672:A2 *438:99 0.000162318
15 *198:10 *1672:C1 5.23362e-05
16 *198:10 *438:155 0.000129047
17 *198:10 *447:18 4.66108e-05
18 *198:12 *1672:C1 0.000186099
19 *198:12 *438:99 4.38051e-05
20 *198:12 *438:155 0.00013994
21 *1672:A1 *1670:A2 2.75145e-05
*RES
1 *1661:X *198:10 5.685 
2 *198:10 *198:12 2.145 
3 *198:12 *1672:A2 8.325 
4 *198:12 *1662:B 4.74 
5 *198:10 *1670:A2 5.085 
*END

*D_NET *199 0.00205841
*CONN
*I *1663:B I *D sky130_fd_sc_hd__xnor2_1
*I *1671:B I *D sky130_fd_sc_hd__or2_1
*I *1668:B I *D sky130_fd_sc_hd__nand2_1
*I *1662:Y O *D sky130_fd_sc_hd__xnor2_1
*CAP
1 *1663:B 9.54541e-05
2 *1671:B 0
3 *1668:B 1.72301e-05
4 *1662:Y 0.000218024
5 *199:18 0.000149693
6 *199:12 0.000445941
7 *1663:B *209:10 6.74079e-05
8 *1663:B *438:87 0.000120894
9 *1668:B *1671:A 4.99619e-05
10 *199:12 *1922:D 2.49909e-05
11 *199:12 *438:87 0.000224487
12 *199:12 *438:99 0.000109009
13 *199:18 *1671:A 8.8266e-05
14 *199:18 *1672:B1 3.90495e-05
15 *199:18 *1672:D1 3.76412e-05
16 *1662:B *199:12 2.49909e-05
17 *1672:A1 *199:12 0.000295386
18 *1672:A2 *1663:B 4.41506e-05
19 *1672:A2 *199:18 5.83121e-06
*RES
1 *1662:Y *199:12 10.67 
2 *199:12 *199:18 2.895 
3 *199:18 *1668:B 2.05 
4 *199:18 *1671:B 1.6 
5 *199:12 *1663:B 8.03 
*END

*D_NET *200 0.00114286
*CONN
*I *1667:S I *D sky130_fd_sc_hd__mux2_1
*I *1663:Y O *D sky130_fd_sc_hd__xnor2_1
*CAP
1 *1667:S 0.000406566
2 *1663:Y 0.000406566
3 *1667:S *1667:A0 0.000157595
4 *1667:S *1699:A1 1.52945e-05
5 *1667:S *1699:B1_N 0.000108548
6 *1667:S *1926:RESET_B 4.82919e-05
7 *1667:S *201:20 0
8 *1667:S *438:41 0
9 *1667:S *438:55 0
*RES
1 *1663:Y *1667:S 14.505 
*END

*D_NET *201 0.00124182
*CONN
*I *1665:B I *D sky130_fd_sc_hd__nor2_1
*I *1666:B I *D sky130_fd_sc_hd__and2_1
*I *1664:X O *D sky130_fd_sc_hd__xor2_1
*CAP
1 *1665:B 5.6591e-05
2 *1666:B 0
3 *1664:X 0.000415807
4 *201:20 0.000472398
5 *1665:B *1665:A 4.3989e-05
6 *1665:B *1667:A0 2.0514e-05
7 *1665:B *412:271 4.85415e-05
8 *201:20 *1664:B 0
9 *201:20 *1667:A0 8.34281e-06
10 *201:20 *1667:A1 0.000126949
11 *201:20 *1699:A1 4.86907e-05
12 *201:20 *432:45 0
13 *1667:S *201:20 0
*RES
1 *1664:X *201:20 11.72 
2 *201:20 *1666:B 1.6 
3 *201:20 *1665:B 3.07 
*END

*D_NET *202 0.00111761
*CONN
*I *1667:A0 I *D sky130_fd_sc_hd__mux2_1
*I *1665:Y O *D sky130_fd_sc_hd__nor2_1
*CAP
1 *1667:A0 0.000146202
2 *1665:Y 0.000146202
3 *1667:A0 *1665:A 4.82919e-05
4 *1667:A0 *1667:A1 0.000116158
5 *1667:A0 *1699:A1 0.00015896
6 *1667:A0 *1699:A2 0.000268734
7 *1667:A0 *412:271 4.66108e-05
8 *1665:B *1667:A0 2.0514e-05
9 *1667:S *1667:A0 0.000157595
10 *201:20 *1667:A0 8.34281e-06
*RES
1 *1665:Y *1667:A0 11.955 
*END

*D_NET *203 0.000600633
*CONN
*I *1667:A1 I *D sky130_fd_sc_hd__mux2_1
*I *1666:X O *D sky130_fd_sc_hd__and2_1
*CAP
1 *1667:A1 9.97295e-05
2 *1666:X 9.97295e-05
3 *1667:A1 *1699:A1 0.000158066
4 *1667:A0 *1667:A1 0.000116158
5 *201:20 *1667:A1 0.000126949
*RES
1 *1666:X *1667:A1 10.065 
*END

*D_NET *204 0.00117111
*CONN
*I *1699:A1 I *D sky130_fd_sc_hd__a21boi_2
*I *1673:A I *D sky130_fd_sc_hd__and2_1
*I *1667:X O *D sky130_fd_sc_hd__mux2_1
*CAP
1 *1699:A1 0.000156854
2 *1673:A 5.98508e-05
3 *1667:X 0
4 *204:4 0.000216705
5 *1673:A *1699:B1_N 2.75145e-05
6 *1699:A1 *1699:A2 0.000104954
7 *1699:A1 *1699:B1_N 8.00465e-05
8 *1699:A1 *225:8 4.9253e-06
9 *1699:A1 *438:41 0.000139245
10 *1667:A0 *1699:A1 0.00015896
11 *1667:A1 *1699:A1 0.000158066
12 *1667:S *1699:A1 1.52945e-05
13 *201:20 *1699:A1 4.86907e-05
*RES
1 *1667:X *204:4 1.6 
2 *204:4 *1673:A 2.665 
3 *204:4 *1699:A1 10.46 
*END

*D_NET *205 0.000883558
*CONN
*I *1672:B1 I *D sky130_fd_sc_hd__o2111a_1
*I *1668:Y O *D sky130_fd_sc_hd__nand2_1
*CAP
1 *1672:B1 0.000262071
2 *1668:Y 0.000262071
3 *1672:B1 *1671:A 0.000164874
4 *1672:B1 *1672:D1 0.000155491
5 *199:18 *1672:B1 3.90495e-05
*RES
1 *1668:Y *1672:B1 6.755 
*END

*D_NET *206 0.00020294
*CONN
*I *1670:B1 I *D sky130_fd_sc_hd__a21oi_1
*I *1669:Y O *D sky130_fd_sc_hd__xnor2_1
*CAP
1 *1670:B1 0.00010147
2 *1669:Y 0.00010147
3 *1670:B1 *1927:D 0
4 *1670:B1 *438:155 0
*RES
1 *1669:Y *1670:B1 8.835 
*END

*D_NET *207 0.00153334
*CONN
*I *1672:C1 I *D sky130_fd_sc_hd__o2111a_1
*I *1670:Y O *D sky130_fd_sc_hd__a21oi_1
*CAP
1 *1672:C1 0.000405161
2 *1670:Y 0.000405161
3 *1672:C1 *1662:A 5.33874e-05
4 *1670:A2 *1672:C1 9.27326e-05
5 *1672:A1 *1672:C1 1.33293e-05
6 *1672:A2 *1672:C1 0.000294414
7 *165:42 *1672:C1 3.07153e-05
8 *198:10 *1672:C1 5.23362e-05
9 *198:12 *1672:C1 0.000186099
*RES
1 *1670:Y *1672:C1 16.035 
*END

*D_NET *208 0.000508296
*CONN
*I *1672:D1 I *D sky130_fd_sc_hd__o2111a_1
*I *1671:X O *D sky130_fd_sc_hd__or2_1
*CAP
1 *1672:D1 0.00011508
2 *1671:X 0.00011508
3 *1672:D1 *209:10 2.65814e-06
4 *1672:A2 *1672:D1 8.23457e-05
5 *1672:B1 *1672:D1 0.000155491
6 *199:18 *1672:D1 3.76412e-05
*RES
1 *1671:X *1672:D1 5.735 
*END

*D_NET *209 0.00247795
*CONN
*I *1699:A2 I *D sky130_fd_sc_hd__a21boi_2
*I *1673:B I *D sky130_fd_sc_hd__and2_1
*I *1672:X O *D sky130_fd_sc_hd__o2111a_1
*CAP
1 *1699:A2 0.000344701
2 *1673:B 0.000138692
3 *1672:X 0.000322401
4 *209:10 0.000805794
5 *1673:B *412:271 4.9968e-05
6 *1673:B *438:41 9.50114e-05
7 *1699:A2 *225:8 1.33293e-05
8 *209:10 *1663:A 0.000120186
9 *209:10 *412:271 0.000108322
10 *209:10 *438:41 2.42236e-05
11 *209:10 *438:55 1.15688e-05
12 *209:10 *438:87 0
13 *1663:B *209:10 6.74079e-05
14 *1667:A0 *1699:A2 0.000268734
15 *1672:D1 *209:10 2.65814e-06
16 *1699:A1 *1699:A2 0.000104954
17 *2106:A *1673:B 0
*RES
1 *1672:X *209:10 9.69 
2 *209:10 *1673:B 6.255 
3 *209:10 *1699:A2 8.67 
*END

*D_NET *210 0.000574774
*CONN
*I *1679:C1 I *D sky130_fd_sc_hd__a221o_1
*I *1674:X O *D sky130_fd_sc_hd__and2b_1
*CAP
1 *1679:C1 0.00012188
2 *1674:X 0.00012188
3 *1679:C1 *458:18 0.00011852
4 *1679:C1 *462:12 1.94723e-05
5 *1679:C1 *483:10 7.06865e-05
6 *167:6 *1679:C1 0.000122337
*RES
1 *1674:X *1679:C1 9.72 
*END

*D_NET *211 0.00139583
*CONN
*I *1678:C1 I *D sky130_fd_sc_hd__o221ai_2
*I *1675:Y O *D sky130_fd_sc_hd__nand2b_1
*CAP
1 *1678:C1 0.000268353
2 *1675:Y 0.000268353
3 *1678:C1 *1625:A 4.66108e-05
4 *1678:C1 *1675:A_N 0
5 *1678:C1 *1677:C1 0.000116165
6 *1678:C1 *1929:D 0.000412042
7 *1678:C1 *446:59 1.34361e-05
8 *1678:C1 *459:29 0.000120655
9 *1678:C1 *462:12 2.78732e-05
10 *1678:C1 *483:10 0
11 *167:6 *1678:C1 0.000122337
*RES
1 *1675:Y *1678:C1 13.5 
*END

*D_NET *212 0.00135044
*CONN
*I *1677:C1 I *D sky130_fd_sc_hd__a221o_1
*I *1676:X O *D sky130_fd_sc_hd__xor2_1
*CAP
1 *1677:C1 0.000494706
2 *1676:X 0.000494706
3 *1677:C1 *1675:A_N 2.04303e-05
4 *1677:C1 *1928:D 0
5 *1677:C1 *1929:D 0.000159668
6 *1677:B2 *1677:C1 6.47594e-05
7 *1678:C1 *1677:C1 0.000116165
*RES
1 *1676:X *1677:C1 14.175 
*END

*D_NET *213 0.00119035
*CONN
*I *1680:A I *D sky130_fd_sc_hd__nor3_1
*I *1681:A1 I *D sky130_fd_sc_hd__o31a_1
*I *1677:X O *D sky130_fd_sc_hd__a221o_1
*CAP
1 *1680:A 0.000344051
2 *1681:A1 7.77994e-05
3 *1677:X 3.22039e-05
4 *213:6 0.000454054
5 *1680:A *1680:B 1.33293e-05
6 *1680:A *1680:C 8.83916e-05
7 *1680:A *214:14 4.35432e-05
8 *1680:A *215:12 4.82919e-05
9 *1681:A1 *1677:B1 0
10 *1681:A1 *1680:B 4.00541e-06
11 *1681:A1 *1680:C 0
12 *1681:A1 *214:14 5.96893e-05
13 *1681:A1 *216:18 1.16578e-05
14 *213:6 *216:18 1.33293e-05
*RES
1 *1677:X *213:6 2.05 
2 *213:6 *1681:A1 3.265 
3 *213:6 *1680:A 6.115 
*END

*D_NET *214 0.000891325
*CONN
*I *1681:A2 I *D sky130_fd_sc_hd__o31a_1
*I *1680:B I *D sky130_fd_sc_hd__nor3_1
*I *1678:Y O *D sky130_fd_sc_hd__o221ai_2
*CAP
1 *1681:A2 0
2 *1680:B 0.000136501
3 *1678:Y 0.000123735
4 *214:14 0.000260236
5 *1680:B *1680:C 0.000104799
6 *1680:B *2117:A 4.82863e-05
7 *1680:B *215:12 1.12578e-05
8 *214:14 *1680:C 9.53428e-06
9 *214:14 *1681:B1 0
10 *214:14 *215:12 7.64093e-05
11 *214:14 *462:29 0
12 *1680:A *1680:B 1.33293e-05
13 *1680:A *214:14 4.35432e-05
14 *1681:A1 *1680:B 4.00541e-06
15 *1681:A1 *214:14 5.96893e-05
*RES
1 *1678:Y *214:14 8.39 
2 *214:14 *1680:B 4.495 
3 *214:14 *1681:A2 1.6 
*END

*D_NET *215 0.000933555
*CONN
*I *1681:A3 I *D sky130_fd_sc_hd__o31a_1
*I *1680:C I *D sky130_fd_sc_hd__nor3_1
*I *1679:X O *D sky130_fd_sc_hd__a221o_1
*CAP
1 *1681:A3 0
2 *1680:C 7.5008e-05
3 *1679:X 0.00012568
4 *215:12 0.000200688
5 *215:12 *1679:A1 4.19884e-05
6 *215:12 *1681:B1 4.94404e-05
7 *215:12 *485:8 3.04982e-05
8 *1678:B1 *215:12 1.94636e-05
9 *1679:A2 *215:12 5.21046e-05
10 *1680:A *1680:C 8.83916e-05
11 *1680:A *215:12 4.82919e-05
12 *1680:B *1680:C 0.000104799
13 *1680:B *215:12 1.12578e-05
14 *1681:A1 *1680:C 0
15 *214:14 *1680:C 9.53428e-06
16 *214:14 *215:12 7.64093e-05
*RES
1 *1679:X *215:12 9.215 
2 *215:12 *1680:C 3.805 
3 *215:12 *1681:A3 1.6 
*END

*D_NET *216 0.00646566
*CONN
*I *1683:B I *D sky130_fd_sc_hd__nor2_1
*I *1685:C I *D sky130_fd_sc_hd__and3_1
*I *1686:A2 I *D sky130_fd_sc_hd__a21oi_1
*I *1682:B I *D sky130_fd_sc_hd__and2_1
*I *1681:X O *D sky130_fd_sc_hd__o31a_1
*CAP
1 *1683:B 0
2 *1685:C 0.000248245
3 *1686:A2 0
4 *1682:B 0.000232267
5 *1681:X 0.00142453
6 *216:37 0.000330166
7 *216:22 0.000463499
8 *216:18 0.00157384
9 *1682:B *1684:A 0.000237115
10 *1682:B *407:6 0.0001249
11 *1682:B *407:611 0.00021088
12 *1685:C *1684:B 5.53249e-06
13 *1685:C *1685:B 0
14 *1685:C *2070:A 0.000187752
15 *1685:C *2071:A 3.49733e-05
16 *1685:C *220:8 0.000139201
17 *1685:C *409:16 8.48112e-05
18 *216:18 *1674:A_N 5.54081e-05
19 *216:18 *1677:B1 3.32654e-05
20 *216:18 *1684:B 3.09179e-05
21 *216:18 *1688:B 3.43361e-05
22 *216:18 *1905:D 6.23399e-05
23 *216:18 *1905:RESET_B 2.40101e-05
24 *216:18 *2032:D 0.000147574
25 *216:18 *418:16 0.000457339
26 *216:18 *418:20 2.96426e-05
27 *216:22 *1683:A 0
28 *216:22 *1684:B 6.36578e-05
29 *216:22 *2027:CLK 0
30 *216:37 *1684:A 4.75576e-05
31 *216:37 *1684:B 0.0001032
32 *216:37 *1685:B 0
33 *216:37 *407:624 0
34 *1677:A2 *216:18 2.87433e-05
35 *1677:B2 *216:18 2.49708e-05
36 *1681:A1 *216:18 1.16578e-05
37 *213:6 *216:18 1.33293e-05
*RES
1 *1681:X *216:18 23.095 
2 *216:18 *216:22 4.145 
3 *216:22 *1682:B 9.69 
4 *216:22 *216:37 2.145 
5 *216:37 *1686:A2 3.6 
6 *216:37 *1685:C 9.2175 
7 *216:18 *1683:B 1.6 
*END

*D_NET *217 0.00131457
*CONN
*I *1684:A I *D sky130_fd_sc_hd__nor2_1
*I *1682:X O *D sky130_fd_sc_hd__and2_1
*CAP
1 *1684:A 0.000472358
2 *1682:X 0.000472358
3 *1684:A *1685:B 1.22762e-05
4 *1684:A *1686:A1 4.82919e-05
5 *1684:A *407:624 2.46089e-05
6 *1682:B *1684:A 0.000237115
7 *216:37 *1684:A 4.75576e-05
*RES
1 *1682:X *1684:A 14.07 
*END

*D_NET *218 0.00130326
*CONN
*I *1684:B I *D sky130_fd_sc_hd__nor2_1
*I *1688:B I *D sky130_fd_sc_hd__xnor2_1
*I *1683:Y O *D sky130_fd_sc_hd__nor2_1
*CAP
1 *1684:B 0.000228192
2 *1688:B 0.000129189
3 *1683:Y 0
4 *218:4 0.000357381
5 *1684:B *2027:CLK 2.67022e-05
6 *1684:B *2027:D 2.49909e-05
7 *1684:B *2071:A 0.00013521
8 *1688:B *1683:A 0.0001249
9 *1688:B *2032:D 3.90495e-05
10 *1685:C *1684:B 5.53249e-06
11 *216:18 *1684:B 3.09179e-05
12 *216:18 *1688:B 3.43361e-05
13 *216:22 *1684:B 6.36578e-05
14 *216:37 *1684:B 0.0001032
*RES
1 *1683:Y *218:4 1.6 
2 *218:4 *1688:B 4.39 
3 *218:4 *1684:B 10.265 
*END

*D_NET *219 0.00191386
*CONN
*I *1689:B I *D sky130_fd_sc_hd__and2_1
*I *1687:A I *D sky130_fd_sc_hd__nor2_1
*I *1690:B I *D sky130_fd_sc_hd__nor2_1
*I *1685:X O *D sky130_fd_sc_hd__and3_1
*CAP
1 *1689:B 0.000219743
2 *1687:A 0
3 *1690:B 0.00010593
4 *1685:X 0.000170508
5 *219:21 0.00031107
6 *219:6 0.000367766
7 *1689:B *1691:B 0
8 *1689:B *2028:D 9.71067e-05
9 *1689:B *221:8 0
10 *1689:B *409:16 0
11 *1689:B *417:91 5.05521e-05
12 *1689:B *417:102 6.19997e-05
13 *1690:B *1690:A 0.000164874
14 *1690:B *2033:D 0.000203178
15 *219:6 *1690:A 4.58257e-05
16 *219:6 *1692:B 5.05521e-05
17 *219:6 *409:16 1.34503e-05
18 *219:21 *1691:B 0
19 *219:21 *2070:A 5.13029e-05
20 *219:21 *222:8 0
*RES
1 *1685:X *219:6 3.775 
2 *219:6 *1690:B 4.75 
3 *219:6 *219:21 3.635 
4 *219:21 *1687:A 3.6 
5 *219:21 *1689:B 7.77 
*END

*D_NET *220 0.00137751
*CONN
*I *1687:B I *D sky130_fd_sc_hd__nor2_1
*I *1692:B I *D sky130_fd_sc_hd__xnor2_1
*I *1686:Y O *D sky130_fd_sc_hd__a21oi_1
*CAP
1 *1687:B 0.000172821
2 *1692:B 1.71066e-05
3 *1686:Y 9.9903e-05
4 *220:8 0.00028983
5 *1687:B *1685:B 2.68721e-05
6 *1687:B *2070:A 5.93844e-05
7 *1687:B *409:16 0
8 *1687:B *410:22 0.000160641
9 *1692:B *409:16 8.65961e-05
10 *220:8 *1685:B 8.53255e-05
11 *220:8 *2070:A 2.46007e-05
12 *220:8 *304:12 0.000164679
13 *1685:C *220:8 0.000139201
14 *219:6 *1692:B 5.05521e-05
*RES
1 *1686:Y *220:8 7.275 
2 *220:8 *1692:B 4.395 
3 *220:8 *1687:B 7.335 
*END

*D_NET *221 0.00254052
*CONN
*I *1693:B I *D sky130_fd_sc_hd__nor2_1
*I *1694:B I *D sky130_fd_sc_hd__nand2_1
*I *1691:A I *D sky130_fd_sc_hd__nor2_1
*I *1689:X O *D sky130_fd_sc_hd__and2_1
*CAP
1 *1693:B 2.8378e-05
2 *1694:B 0.000115371
3 *1691:A 0.000225378
4 *1689:X 0.000100518
5 *221:12 0.000529392
6 *221:8 0.000317538
7 *1691:A *1691:B 0.000163199
8 *1691:A *446:151 0.00028271
9 *1694:B *1694:A 0.000147827
10 *1694:B *1695:B 0
11 *221:8 *1693:A 4.66108e-05
12 *221:8 *417:102 0.00016063
13 *221:12 *1694:A 2.59981e-05
14 *221:12 *1695:B 0
15 *221:12 *2029:CLK 0.000141606
16 *221:12 *223:10 0.00011852
17 *221:12 *410:10 8.68724e-05
18 *221:12 *417:108 4.9968e-05
19 *1689:B *221:8 0
*RES
1 *1689:X *221:8 3.79 
2 *221:8 *221:12 6.44 
3 *221:12 *1691:A 8.55 
4 *221:12 *1694:B 6.195 
5 *221:8 *1693:B 2.05 
*END

*D_NET *222 0.00145309
*CONN
*I *1691:B I *D sky130_fd_sc_hd__nor2_1
*I *1696:B I *D sky130_fd_sc_hd__xnor2_1
*I *1690:Y O *D sky130_fd_sc_hd__nor2_1
*CAP
1 *1691:B 0.000387001
2 *1696:B 0
3 *1690:Y 8.51563e-05
4 *222:8 0.000472157
5 *1691:B *1689:A 8.97564e-05
6 *1691:B *2029:D 5.2089e-05
7 *1691:B *410:10 0
8 *1691:B *410:16 0
9 *1691:B *417:108 0
10 *1691:B *446:151 0.000163199
11 *222:8 *2034:D 4.05358e-05
12 *222:8 *417:108 0
13 *1689:B *1691:B 0
14 *1691:A *1691:B 0.000163199
15 *219:21 *1691:B 0
16 *219:21 *222:8 0
*RES
1 *1690:Y *222:8 4.98 
2 *222:8 *1696:B 3.6 
3 *222:8 *1691:B 11.31 
*END

*D_NET *223 0.000612066
*CONN
*I *1698:B I *D sky130_fd_sc_hd__xnor2_1
*I *1695:A_N I *D sky130_fd_sc_hd__and2b_1
*I *1693:Y O *D sky130_fd_sc_hd__nor2_1
*CAP
1 *1698:B 0.000130251
2 *1695:A_N 3.76639e-05
3 *1693:Y 5.40785e-05
4 *223:10 0.000221994
5 *1698:B *2030:D 3.72916e-05
6 *223:10 *1695:B 1.22676e-05
7 *221:12 *223:10 0.00011852
*RES
1 *1693:Y *223:10 6.98 
2 *223:10 *1695:A_N 2.05 
3 *223:10 *1698:B 3.775 
*END

*D_NET *224 0.000805717
*CONN
*I *1697:B I *D sky130_fd_sc_hd__xnor2_1
*I *1695:B I *D sky130_fd_sc_hd__and2b_1
*I *1694:Y O *D sky130_fd_sc_hd__nand2_1
*CAP
1 *1697:B 5.213e-05
2 *1695:B 0.000274388
3 *1694:Y 4.52262e-05
4 *224:6 0.000371744
5 *224:6 *1694:A 4.99619e-05
6 *1694:B *1695:B 0
7 *221:12 *1695:B 0
8 *223:10 *1695:B 1.22676e-05
*RES
1 *1694:Y *224:6 2.395 
2 *224:6 *1695:B 10.04 
3 *224:6 *1697:B 2.395 
*END

*D_NET *225 0.00420159
*CONN
*I *1701:B I *D sky130_fd_sc_hd__xor2_1
*I *2116:A I *D sky130_fd_sc_hd__buf_8
*I *1702:C I *D sky130_fd_sc_hd__and3_1
*I *1699:Y O *D sky130_fd_sc_hd__a21boi_2
*CAP
1 *1701:B 3.65913e-05
2 *2116:A 0.00043304
3 *1702:C 0.000209169
4 *1699:Y 0.000937092
5 *225:10 0.000694
6 *225:8 0.00102548
7 *1701:B *1994:D 1.08758e-05
8 *1701:B *411:14 5.43722e-05
9 *1702:C *411:16 0.000453745
10 *2116:A *1706:A2 0
11 *2116:A *1994:D 1.94892e-05
12 *2116:A *1995:D 0
13 *2116:A *412:10 0
14 *2116:A *432:98 0
15 *225:8 *1994:D 3.09179e-05
16 *225:8 *411:14 0.000219015
17 *225:10 *411:14 1.12578e-05
18 *225:10 *411:16 4.82919e-05
19 *1699:A1 *225:8 4.9253e-06
20 *1699:A2 *225:8 1.33293e-05
*RES
1 *1699:Y *225:8 13.105 
2 *225:8 *225:10 1.14 
3 *225:10 *1702:C 5.725 
4 *225:10 *2116:A 12.335 
5 *225:8 *1701:B 2.77 
*END

*D_NET *226 0.000447042
*CONN
*I *1705:B I *D sky130_fd_sc_hd__xnor2_1
*I *1700:Y O *D sky130_fd_sc_hd__nor2_1
*CAP
1 *1705:B 3.05434e-05
2 *1700:Y 3.05434e-05
3 *1705:B *1700:B 0.000162311
4 *1705:B *1712:B 2.30292e-05
5 *1705:B *423:29 0.000200615
*RES
1 *1700:Y *1705:B 5.03 
*END

*D_NET *227 0.00137637
*CONN
*I *1704:A I *D sky130_fd_sc_hd__nor2_1
*I *1707:B I *D sky130_fd_sc_hd__xor2_1
*I *1702:X O *D sky130_fd_sc_hd__and3_1
*CAP
1 *1704:A 0.000131289
2 *1707:B 0
3 *1702:X 0.000175081
4 *227:8 0.000306371
5 *1704:A *1995:D 0.000189934
6 *1704:A *2000:CLK 0.000317507
7 *1704:A *228:8 7.1301e-06
8 *227:8 *1995:CLK 3.26822e-05
9 *227:8 *1995:D 8.89673e-05
10 *227:8 *228:8 0.000127408
11 *227:8 *432:98 0
*RES
1 *1702:X *227:8 7.275 
2 *227:8 *1707:B 3.6 
3 *227:8 *1704:A 7.98 
*END

*D_NET *228 0.00142994
*CONN
*I *1704:B I *D sky130_fd_sc_hd__nor2_1
*I *1708:B I *D sky130_fd_sc_hd__xnor2_1
*I *1703:Y O *D sky130_fd_sc_hd__a21oi_1
*CAP
1 *1704:B 0.000107614
2 *1708:B 5.50653e-05
3 *1703:Y 0.000164794
4 *228:8 0.000327473
5 *1704:B *2000:CLK 0.000181376
6 *1704:B *2000:D 0.00011852
7 *1704:B *413:23 0
8 *1704:B *413:36 0
9 *1708:B *450:8 5.05437e-05
10 *1708:B *450:12 1.61831e-05
11 *228:8 *1702:B 3.76596e-05
12 *228:8 *1995:CLK 3.09164e-05
13 *228:8 *2000:CLK 0.000141599
14 *228:8 *412:33 6.36578e-05
15 *228:8 *413:23 0
16 *1704:A *228:8 7.1301e-06
17 *227:8 *228:8 0.000127408
*RES
1 *1703:Y *228:8 8.04 
2 *228:8 *1708:B 4.74 
3 *228:8 *1704:B 6.195 
*END

*D_NET *229 0.000310222
*CONN
*I *1713:B I *D sky130_fd_sc_hd__xnor2_1
*I *1706:X O *D sky130_fd_sc_hd__a31o_1
*CAP
1 *1713:B 2.31107e-05
2 *1706:X 2.31107e-05
3 *1713:B *1706:A1 0.000164874
4 *165:42 *1713:B 9.91257e-05
*RES
1 *1706:X *1713:B 4.685 
*END

*D_NET *230 0.00359534
*CONN
*I *1758:D I *D sky130_fd_sc_hd__and4b_4
*I *1710:D I *D sky130_fd_sc_hd__nand4_4
*I *1776:D I *D sky130_fd_sc_hd__and4bb_4
*I *1767:C I *D sky130_fd_sc_hd__nand4b_4
*I *1709:X O *D sky130_fd_sc_hd__and2_2
*CAP
1 *1758:D 0.000582749
2 *1710:D 0
3 *1776:D 5.77101e-05
4 *1767:C 2.11528e-05
5 *1709:X 9.62237e-05
6 *230:36 0.000640514
7 *230:25 0.000176089
8 *230:14 0.00017799
9 *1758:D *1723:B1 8.42239e-05
10 *1758:D *1731:B1 8.97564e-05
11 *1758:D *1758:B 4.87005e-05
12 *1758:D *1758:C 0.000129099
13 *1758:D *1813:D 0.00015639
14 *1758:D *270:16 2.68464e-05
15 *1758:D *411:126 1.03423e-05
16 *1758:D *447:18 0.000123225
17 *1767:C *265:26 1.56428e-05
18 *1767:C *416:180 2.49909e-05
19 *1776:D *1776:B_N 4.66108e-05
20 *1776:D *1785:A 4.21889e-05
21 *1776:D *265:26 4.66108e-05
22 *1776:D *265:101 0.000114024
23 *1776:D *447:18 7.5277e-05
24 *230:14 *1731:B1 0.00011237
25 *230:14 *261:8 4.82863e-05
26 *230:14 *412:119 3.32246e-05
27 *230:14 *416:180 7.23533e-05
28 *230:25 *1723:B1 1.26626e-05
29 *230:25 *1731:B1 3.76596e-05
30 *230:25 *265:26 0.00013521
31 *230:25 *412:119 0.000172845
32 *230:36 *1723:B1 8.34426e-05
33 *230:36 *1731:B1 7.00066e-05
34 *230:36 *265:26 3.09233e-05
*RES
1 *1709:X *230:14 5.985 
2 *230:14 *1767:C 4.05 
3 *230:14 *230:25 2.4 
4 *230:25 *1776:D 5.775 
5 *230:25 *230:36 1.89 
6 *230:36 *1710:D 3.6 
7 *230:36 *1758:D 13.8 
*END

*D_NET *231 0.0237196
*CONN
*I *1712:A I *D sky130_fd_sc_hd__and2_1
*I *1714:B I *D sky130_fd_sc_hd__xnor2_1
*I *1878:S I *D sky130_fd_sc_hd__mux2_1
*I *1880:S I *D sky130_fd_sc_hd__mux2_1
*I *1881:S I *D sky130_fd_sc_hd__mux2_1
*I *1882:S I *D sky130_fd_sc_hd__mux2_1
*I *1884:S I *D sky130_fd_sc_hd__mux2_1
*I *1883:S I *D sky130_fd_sc_hd__mux2_1
*I *1879:S I *D sky130_fd_sc_hd__mux2_1
*I *1877:S I *D sky130_fd_sc_hd__mux2_1
*I *1710:Y O *D sky130_fd_sc_hd__nand4_4
*CAP
1 *1712:A 0.000570935
2 *1714:B 0
3 *1878:S 0.000113666
4 *1880:S 0.000175843
5 *1881:S 0
6 *1882:S 0.000673016
7 *1884:S 0
8 *1883:S 0.000620354
9 *1879:S 0.000613213
10 *1877:S 0
11 *1710:Y 0
12 *231:107 0.000238104
13 *231:59 0.00129047
14 *231:55 0.00108664
15 *231:51 0.00210627
16 *231:45 0.00164576
17 *231:30 0.00131648
18 *231:24 0.000833362
19 *231:12 0.000897777
20 *231:4 0.000885516
21 *1712:A *1705:A 1.46744e-05
22 *1712:A *1712:B 5.05437e-05
23 *1712:A *1910:D 5.83373e-05
24 *1712:A *1929:CLK 0.000160641
25 *1712:A *2002:D 3.67779e-05
26 *1712:A *423:29 0.000122331
27 *1712:A *423:33 3.09164e-05
28 *1712:A *477:10 0.00025143
29 *1878:S *1759:A0 0.000225182
30 *1878:S *266:19 0.000404416
31 *1878:S *270:91 9.61052e-05
32 *1879:S *1761:A0 7.21296e-06
33 *1879:S *1770:A0 3.9442e-05
34 *1879:S *1879:A1 0.000227055
35 *1879:S *263:55 0.000866193
36 *1879:S *457:31 0
37 *1880:S *409:160 0.000101325
38 *1880:S *410:57 0
39 *1880:S *454:28 0.000196422
40 *1882:S *1639:A0 9.49289e-05
41 *1882:S *1639:A1 0.000115464
42 *1882:S *1763:A0 5.71917e-05
43 *1882:S *1773:A0 0.000136114
44 *1882:S *1882:A1 0.00018471
45 *1882:S *324:10 9.54399e-05
46 *1882:S *409:166 3.85884e-05
47 *1882:S *409:172 0.000112184
48 *1882:S *409:174 0
49 *1882:S *455:104 0.000183586
50 *1882:S *455:110 5.08304e-06
51 *1882:S *455:145 0
52 *1882:S *456:86 4.47209e-05
53 *1882:S *456:92 0.000169052
54 *1883:S *1765:A0 0.000187759
55 *1883:S *1765:S 0.00012904
56 *1883:S *1944:CLK 8.53113e-06
57 *1883:S *263:55 0.000563613
58 *1883:S *266:65 8.26536e-05
59 *1883:S *408:484 0
60 *1883:S *436:52 9.54469e-05
61 *1883:S *436:58 0.00038674
62 *1883:S *457:18 0
63 *1883:S *457:29 9.38181e-05
64 *1883:S *457:31 0
65 *1883:S *457:138 4.82863e-05
66 *231:12 *1705:A 3.00381e-05
67 *231:12 *1714:A 0.000697383
68 *231:12 *1715:B 4.91189e-05
69 *231:12 *1998:D 0
70 *231:12 *265:101 0
71 *231:12 *423:10 9.9535e-05
72 *231:12 *423:12 0.000200937
73 *231:12 *423:14 7.44375e-05
74 *231:24 *1718:A0 4.21973e-05
75 *231:24 *1718:S0 4.66108e-05
76 *231:24 *1719:A2 8.23457e-05
77 *231:24 *1768:A1 0.000267846
78 *231:24 *1768:S 2.16917e-05
79 *231:24 *1938:CLK 8.23457e-05
80 *231:24 *311:12 0.000143833
81 *231:24 *407:234 0.000181369
82 *231:24 *409:52 0.000183036
83 *231:24 *451:177 1.74678e-05
84 *231:30 *311:12 0.000103186
85 *231:30 *451:177 0.000132785
86 *231:45 *1629:A2 6.90889e-06
87 *231:45 *1629:A3 0.00031395
88 *231:45 *1781:A1 3.1562e-06
89 *231:45 *1781:S 0.000378181
90 *231:45 *1877:A0 1.1392e-05
91 *231:45 *408:394 9.56029e-06
92 *231:45 *451:177 0.000160635
93 *231:51 *1629:A0 0.000117825
94 *231:51 *1763:A0 5.55384e-05
95 *231:51 *1881:A1 8.53113e-06
96 *231:51 *410:57 0
97 *231:51 *454:28 0.00016141
98 *231:55 *1655:A3 9.46525e-06
99 *231:55 *1934:CLK 3.09179e-05
100 *231:55 *1953:CLK 6.0011e-05
101 *231:55 *436:69 0.000121094
102 *231:59 *436:58 4.66108e-05
103 *231:59 *436:69 7.40446e-05
104 *231:107 *1881:A1 0.000107634
105 *231:107 *410:57 0
106 *1630:B *231:45 4.43682e-05
107 *1638:B *1879:S 0.000427876
108 *1646:B *1883:S 0
109 *1934:D *1882:S 7.23533e-05
110 *1934:D *231:55 4.81438e-05
111 *1936:D *1883:S 3.68682e-05
112 *1953:D *231:55 5.36069e-06
113 *1980:D *1879:S 7.75412e-05
114 *2059:D *1879:S 5.72091e-05
115 *164:34 *1880:S 2.75229e-05
*RES
1 *1710:Y *231:4 1.6 
2 *231:4 *231:12 13.99 
3 *231:12 *231:24 14.995 
4 *231:24 *231:30 3.24 
5 *231:30 *1877:S 1.6 
6 *231:30 *231:45 18.8 
7 *231:45 *231:51 8.285 
8 *231:51 *231:55 12.105 
9 *231:55 *231:59 3.14 
10 *231:59 *1879:S 19.845 
11 *231:59 *1883:S 19.59 
12 *231:55 *1884:S 1.6 
13 *231:51 *1882:S 22.925 
14 *231:45 *231:107 1.38 
15 *231:107 *1881:S 3.6 
16 *231:107 *1880:S 8.235 
17 *231:24 *1878:S 10.295 
18 *231:12 *1714:B 1.6 
19 *231:4 *1712:A 18.72 
*END

*D_NET *232 0.00321732
*CONN
*I *1715:B I *D sky130_fd_sc_hd__xor2_1
*I *1712:B I *D sky130_fd_sc_hd__and2_1
*I *1711:X O *D sky130_fd_sc_hd__a41o_1
*CAP
1 *1715:B 0.000148689
2 *1712:B 0.000495965
3 *1711:X 0.000366028
4 *232:10 0.00101068
5 *1712:B *1700:B 0.000535816
6 *1712:B *1929:CLK 9.80943e-06
7 *1712:B *1997:D 0.000158072
8 *1712:B *423:29 2.54431e-05
9 *1715:B *1776:C 1.1561e-05
10 *1715:B *2002:CLK 0
11 *1715:B *265:101 0
12 *1715:B *423:14 0
13 *232:10 *1710:A 0
14 *232:10 *1711:A1 0
15 *232:10 *1711:A2 0.000102022
16 *232:10 *1711:B1 4.21973e-05
17 *232:10 *1731:B1 0
18 *232:10 *1776:C 5.13155e-05
19 *232:10 *2002:CLK 0
20 *232:10 *411:153 0
21 *232:10 *411:175 0
22 *232:10 *411:203 0
23 *232:10 *414:8 5.21046e-05
24 *1705:B *1712:B 2.30292e-05
25 *1712:A *1712:B 5.05437e-05
26 *1748:A *232:10 8.49205e-05
27 *165:29 *232:10 0
28 *231:12 *1715:B 4.91189e-05
*RES
1 *1711:X *232:10 10.29 
2 *232:10 *1712:B 11.775 
3 *232:10 *1715:B 6.255 
*END

*D_NET *233 0.00113312
*CONN
*I *1717:B I *D sky130_fd_sc_hd__or2_1
*I *1716:X O *D sky130_fd_sc_hd__mux4_1
*CAP
1 *1717:B 0.00020097
2 *1716:X 0.00020097
3 *1717:B *1719:A2 3.25831e-05
4 *1717:B *270:16 0.000289715
5 *1717:B *407:248 9.91733e-05
6 *1717:B *412:182 0.000116165
7 *1717:B *450:161 2.65814e-06
8 *1717:B *452:32 0.000190881
*RES
1 *1716:X *1717:B 13.365 
*END

*D_NET *234 0.000476624
*CONN
*I *1723:A1 I *D sky130_fd_sc_hd__a22o_1
*I *1717:X O *D sky130_fd_sc_hd__or2_1
*CAP
1 *1723:A1 0.000104021
2 *1717:X 0.000104021
3 *1723:A1 *1719:A2 4.80285e-05
4 *1723:A1 *1723:A2 0.000141592
5 *1723:A1 *264:8 7.89611e-05
*RES
1 *1717:X *1723:A1 9.63 
*END

*D_NET *235 0.00268426
*CONN
*I *1719:A2 I *D sky130_fd_sc_hd__o21a_1
*I *1718:X O *D sky130_fd_sc_hd__mux4_1
*CAP
1 *1719:A2 0.000817212
2 *1718:X 0.000817212
3 *1719:A2 *1718:A2 6.90889e-06
4 *1719:A2 *1718:A3 8.89741e-06
5 *1719:A2 *1718:S0 5.18486e-05
6 *1719:A2 *1719:B1 4.82863e-05
7 *1719:A2 *407:234 4.9968e-05
8 *1719:A2 *407:248 0.000163284
9 *1719:A2 *408:384 0.000159313
10 *1719:A2 *409:52 2.49909e-05
11 *1719:A2 *409:63 1.91597e-05
12 *1719:A2 *452:32 0.000354222
13 *1717:B *1719:A2 3.25831e-05
14 *1723:A1 *1719:A2 4.80285e-05
15 *231:24 *1719:A2 8.23457e-05
*RES
1 *1718:X *1719:A2 21.285 
*END

*D_NET *236 0.000297565
*CONN
*I *1723:A2 I *D sky130_fd_sc_hd__a22o_1
*I *1719:X O *D sky130_fd_sc_hd__o21a_1
*CAP
1 *1723:A2 3.75644e-05
2 *1719:X 3.75644e-05
3 *1723:A2 *1731:B1 8.08439e-05
4 *1723:A1 *1723:A2 0.000141592
*RES
1 *1719:X *1723:A2 8.835 
*END

*D_NET *237 0.00243868
*CONN
*I *1722:A0 I *D sky130_fd_sc_hd__mux2_1
*I *1720:X O *D sky130_fd_sc_hd__mux4_1
*CAP
1 *1722:A0 0.000901422
2 *1720:X 0.000901422
3 *1722:A0 *1720:A0 0
4 *1722:A0 *1720:A2 1.54111e-05
5 *1722:A0 *1720:S0 1.92979e-05
6 *1722:A0 *1722:A1 4.82919e-05
7 *1722:A0 *1851:A1 6.27736e-05
8 *1722:A0 *1869:A1 0
9 *1722:A0 *272:25 0
10 *1722:A0 *277:92 0.000366786
11 *1722:A0 *335:10 0
12 *1722:A0 *351:10 3.92502e-05
13 *1722:A0 *430:14 0
14 *2019:D *1722:A0 8.40213e-05
*RES
1 *1720:X *1722:A0 22.2 
*END

*D_NET *238 0.000406441
*CONN
*I *1722:A1 I *D sky130_fd_sc_hd__mux2_1
*I *1721:X O *D sky130_fd_sc_hd__mux4_1
*CAP
1 *1722:A1 0.000109671
2 *1721:X 0.000109671
3 *1722:A1 *1722:S 0.000138808
4 *1722:A0 *1722:A1 4.82919e-05
*RES
1 *1721:X *1722:A1 5.375 
*END

*D_NET *239 0.00717683
*CONN
*I *1723:B1 I *D sky130_fd_sc_hd__a22o_1
*I *1722:X O *D sky130_fd_sc_hd__mux2_1
*CAP
1 *1723:B1 0.00154535
2 *1722:X 0.00154535
3 *1723:B1 *1721:A0 0.000148874
4 *1723:B1 *1722:S 4.66826e-05
5 *1723:B1 *1731:B1 0
6 *1723:B1 *1746:S 3.67779e-05
7 *1723:B1 *1833:S 0
8 *1723:B1 *1841:D 2.67022e-05
9 *1723:B1 *1842:S 2.79004e-05
10 *1723:B1 *2020:CLK 0.000206123
11 *1723:B1 *2082:A 7.89689e-05
12 *1723:B1 *264:8 0.000668893
13 *1723:B1 *268:38 6.4422e-05
14 *1723:B1 *407:427 9.84957e-05
15 *1723:B1 *407:439 0.000202088
16 *1723:B1 *409:63 0.00013532
17 *1723:B1 *411:53 0.000182342
18 *1723:B1 *412:119 0.000333496
19 *1723:B1 *416:180 0.00044037
20 *1723:B1 *416:182 1.26626e-05
21 *1723:B1 *416:184 0.000426764
22 *1723:B1 *451:86 0.000316799
23 *1723:B1 *451:101 0.000227543
24 *1723:B1 *452:32 0.000129138
25 *1758:D *1723:B1 8.42239e-05
26 *2061:D *1723:B1 9.54399e-05
27 *230:25 *1723:B1 1.26626e-05
28 *230:36 *1723:B1 8.34426e-05
*RES
1 *1722:X *1723:B1 46.905 
*END

*D_NET *240 0.000906767
*CONN
*I *1725:B I *D sky130_fd_sc_hd__or2_1
*I *1724:X O *D sky130_fd_sc_hd__mux4_1
*CAP
1 *1725:B 0.000309313
2 *1724:X 0.000309313
3 *1725:B *1731:B1 0
4 *1725:B *1947:CLK 2.49909e-05
5 *1725:B *265:110 0
6 *1719:A1 *1725:B 0.000141599
7 *1947:D *1725:B 0.000121552
*RES
1 *1724:X *1725:B 11.7 
*END

*D_NET *241 0.000820115
*CONN
*I *1731:A1 I *D sky130_fd_sc_hd__a22o_1
*I *1725:X O *D sky130_fd_sc_hd__or2_1
*CAP
1 *1731:A1 0.00024159
2 *1725:X 0.00024159
3 *1731:A1 *1685:B 7.21296e-06
4 *1731:A1 *1731:A2 4.99619e-05
5 *1731:A1 *408:570 0.000238137
6 *1731:A1 *408:574 3.86529e-05
7 *163:108 *1731:A1 2.97004e-06
*RES
1 *1725:X *1731:A1 11.88 
*END

*D_NET *242 0.00229183
*CONN
*I *1727:A2 I *D sky130_fd_sc_hd__o21a_1
*I *1726:X O *D sky130_fd_sc_hd__mux4_1
*CAP
1 *1727:A2 0.000767489
2 *1726:X 0.000767489
3 *1727:A2 *1726:A0 6.31674e-05
4 *1727:A2 *1726:A2 0.000128346
5 *1727:A2 *1727:B1 3.09233e-05
6 *1727:A2 *1913:CLK 1.15688e-05
7 *1727:A2 *392:10 8.39945e-05
8 *1727:A2 *408:30 0.000378213
9 *1727:A2 *417:87 1.1561e-05
10 *1727:A2 *417:91 4.41506e-05
11 *1913:D *1727:A2 0
12 *1979:D *1727:A2 4.9253e-06
*RES
1 *1726:X *1727:A2 18.945 
*END

*D_NET *243 0.000640869
*CONN
*I *1731:A2 I *D sky130_fd_sc_hd__a22o_1
*I *1727:X O *D sky130_fd_sc_hd__o21a_1
*CAP
1 *1731:A2 0.000153093
2 *1727:X 0.000153093
3 *1731:A2 *1727:B1 8.71001e-05
4 *1731:A2 *410:24 7.89689e-05
5 *1731:A1 *1731:A2 4.99619e-05
6 *1913:D *1731:A2 0.000118652
*RES
1 *1727:X *1731:A2 11.43 
*END

*D_NET *244 0.000774062
*CONN
*I *1730:A0 I *D sky130_fd_sc_hd__mux2_1
*I *1728:X O *D sky130_fd_sc_hd__mux4_1
*CAP
1 *1730:A0 0.000230399
2 *1728:X 0.000230399
3 *1730:A0 *1730:A1 0.000130992
4 *1730:A0 *409:98 0.000182271
5 *1730:A0 *416:180 0
6 *1730:A0 *416:184 0
*RES
1 *1728:X *1730:A0 12.66 
*END

*D_NET *245 0.00141699
*CONN
*I *1730:A1 I *D sky130_fd_sc_hd__mux2_1
*I *1729:X O *D sky130_fd_sc_hd__mux4_1
*CAP
1 *1730:A1 0.000464389
2 *1729:X 0.000464389
3 *1730:A1 *1841:A_N 6.97202e-05
4 *1730:A1 *2020:CLK 2.49909e-05
5 *1730:A1 *408:134 0.000119654
6 *1730:A1 *416:180 3.86607e-05
7 *1730:A1 *416:182 2.78732e-05
8 *1730:A1 *416:184 7.63204e-05
9 *1730:A0 *1730:A1 0.000130992
*RES
1 *1729:X *1730:A1 14.46 
*END

*D_NET *246 0.00731938
*CONN
*I *1731:B1 I *D sky130_fd_sc_hd__a22o_1
*I *1730:X O *D sky130_fd_sc_hd__mux2_1
*CAP
1 *1731:B1 0.00137791
2 *1730:X 0.00137791
3 *1731:B1 *1719:B1 0.00152222
4 *1731:B1 *1768:A0 4.03082e-05
5 *1731:B1 *1777:A0 0.000107634
6 *1731:B1 *1841:A_N 1.61831e-05
7 *1731:B1 *1841:B 0.000204907
8 *1731:B1 *264:8 0
9 *1731:B1 *265:26 0.000155928
10 *1731:B1 *265:101 0.0003646
11 *1731:B1 *265:110 0.000348679
12 *1731:B1 *303:10 0.000136877
13 *1731:B1 *409:94 0.00023241
14 *1731:B1 *410:24 3.09233e-05
15 *1731:B1 *411:64 0.000125541
16 *1731:B1 *411:153 0.000168753
17 *1731:B1 *412:54 0.000160658
18 *1731:B1 *412:80 0.000179008
19 *1731:B1 *412:91 0.000158297
20 *1731:B1 *412:106 0.000202095
21 *1731:B1 *416:180 1.79098e-05
22 *1723:A2 *1731:B1 8.08439e-05
23 *1723:B1 *1731:B1 0
24 *1725:B *1731:B1 0
25 *1758:D *1731:B1 8.97564e-05
26 *1913:D *1731:B1 0
27 *230:14 *1731:B1 0.00011237
28 *230:25 *1731:B1 3.76596e-05
29 *230:36 *1731:B1 7.00066e-05
30 *232:10 *1731:B1 0
*RES
1 *1730:X *1731:B1 47.88 
*END

*D_NET *247 0.00138911
*CONN
*I *1733:B I *D sky130_fd_sc_hd__or2_1
*I *1732:X O *D sky130_fd_sc_hd__mux4_1
*CAP
1 *1733:B 0.000431177
2 *1732:X 0.000431177
3 *1733:B *1775:A1 8.8266e-05
4 *1733:B *2059:CLK 8.49205e-05
5 *1733:B *270:47 5.20968e-05
6 *1733:B *433:122 9.71067e-05
7 *2059:D *1733:B 0.000204362
*RES
1 *1732:X *1733:B 14.64 
*END

*D_NET *248 0.00120625
*CONN
*I *1739:A1 I *D sky130_fd_sc_hd__a22o_1
*I *1733:X O *D sky130_fd_sc_hd__or2_1
*CAP
1 *1739:A1 0.000172853
2 *1733:X 0.000172853
3 *1739:A1 *1739:B1 4.66108e-05
4 *1739:A1 *1779:A0 0.000198939
5 *1739:A1 *1779:A1 1.47347e-05
6 *1739:A1 *1779:S 2.36716e-05
7 *1739:A1 *263:55 0
8 *1739:A1 *270:30 0.000497687
9 *1739:A1 *436:77 4.94404e-05
10 *1739:B2 *1739:A1 2.94604e-05
*RES
1 *1733:X *1739:A1 12.915 
*END

*D_NET *249 0.0010373
*CONN
*I *1735:A2 I *D sky130_fd_sc_hd__o21a_1
*I *1734:X O *D sky130_fd_sc_hd__mux4_1
*CAP
1 *1735:A2 0.00032291
2 *1734:X 0.00032291
3 *1735:A2 *1638:A 7.00889e-06
4 *1735:A2 *1943:CLK 7.23908e-05
5 *1735:A2 *409:172 0.000122888
6 *1735:A2 *434:72 5.4256e-05
7 *1638:B *1735:A2 0.000134938
*RES
1 *1734:X *1735:A2 12.975 
*END

*D_NET *250 0.000248734
*CONN
*I *1739:A2 I *D sky130_fd_sc_hd__a22o_1
*I *1735:X O *D sky130_fd_sc_hd__o21a_1
*CAP
1 *1739:A2 2.72258e-05
2 *1735:X 2.72258e-05
3 *1739:A2 *270:30 0.000123225
4 *1739:B2 *1739:A2 7.10578e-05
*RES
1 *1735:X *1739:A2 4.34 
*END

*D_NET *251 0.00211021
*CONN
*I *1738:A0 I *D sky130_fd_sc_hd__mux2_1
*I *1736:X O *D sky130_fd_sc_hd__mux4_1
*CAP
1 *1738:A0 0.000510162
2 *1736:X 0.000510162
3 *1738:A0 *1736:A2 4.99619e-05
4 *1738:A0 *1736:A3 1.83756e-05
5 *1738:A0 *1738:A1 0.000163204
6 *1738:A0 *1853:S 4.43871e-06
7 *1738:A0 *1888:A0 4.91927e-05
8 *1738:A0 *1888:S 0.000114838
9 *1738:A0 *1974:CLK 0.000201508
10 *1738:A0 *419:12 0.00013994
11 *1738:A0 *419:100 0.000186099
12 *1738:A0 *419:113 0.000162325
13 *2015:D *1738:A0 0
14 *2046:D *1738:A0 0
*RES
1 *1736:X *1738:A0 19.53 
*END

*D_NET *252 0.000803626
*CONN
*I *1738:A1 I *D sky130_fd_sc_hd__mux2_1
*I *1737:X O *D sky130_fd_sc_hd__mux4_1
*CAP
1 *1738:A1 0.000218281
2 *1737:X 0.000218281
3 *1738:A1 *1888:S 7.23533e-05
4 *1738:A1 *1974:CLK 1.33285e-05
5 *1738:A1 *2005:CLK 4.41506e-05
6 *1738:A0 *1738:A1 0.000163204
7 *2038:D *1738:A1 7.4027e-05
*RES
1 *1737:X *1738:A1 10.59 
*END

*D_NET *253 0.00834263
*CONN
*I *1739:B1 I *D sky130_fd_sc_hd__a22o_1
*I *1738:X O *D sky130_fd_sc_hd__mux2_1
*CAP
1 *1739:B1 1.65033e-05
2 *1738:X 0.00178957
3 *253:12 0.00180607
4 *253:12 *1649:S1 2.24423e-05
5 *253:12 *1734:S1 5.51158e-05
6 *253:12 *1738:S 0.000434331
7 *253:12 *1809:A1 0.000116165
8 *253:12 *1826:S 0.000577956
9 *253:12 *1875:S 0
10 *253:12 *1974:CLK 3.00381e-05
11 *253:12 *2050:CLK 0
12 *253:12 *2057:CLK 0.000183738
13 *253:12 *272:99 0.000890173
14 *253:12 *379:10 8.05587e-05
15 *253:12 *408:249 0.000329001
16 *253:12 *408:257 6.63219e-06
17 *253:12 *408:402 9.91888e-05
18 *253:12 *416:45 0
19 *253:12 *428:66 0
20 *253:12 *428:82 0
21 *253:12 *434:12 0
22 *253:12 *434:23 0.000181376
23 *253:12 *436:77 0
24 *253:12 *455:73 0.000114492
25 *1651:A1 *253:12 0
26 *1652:B1 *253:12 0.00148342
27 *1739:A1 *1739:B1 4.66108e-05
28 *1739:B2 *1739:B1 2.49909e-05
29 *1992:D *253:12 5.42473e-05
*RES
1 *1738:X *253:12 49.82 
2 *253:12 *1739:B1 2.05 
*END

*D_NET *254 0.000650484
*CONN
*I *1741:B I *D sky130_fd_sc_hd__or2_1
*I *1740:X O *D sky130_fd_sc_hd__mux4_1
*CAP
1 *1741:B 0.000170728
2 *1740:X 0.000170728
3 *1741:B *1740:S1 0
4 *1741:B *424:71 0
5 *1916:D *1741:B 0.000309028
*RES
1 *1740:X *1741:B 10.875 
*END

*D_NET *255 0.0012577
*CONN
*I *1747:A1 I *D sky130_fd_sc_hd__a22o_1
*I *1741:X O *D sky130_fd_sc_hd__or2_1
*CAP
1 *1747:A1 0.000363541
2 *1741:X 0.000363541
3 *1747:A1 *267:71 0.000112123
4 *1747:A1 *409:148 0.000418498
5 *1747:B2 *1747:A1 0
*RES
1 *1741:X *1747:A1 12.48 
*END

*D_NET *256 0.000410184
*CONN
*I *1743:A2 I *D sky130_fd_sc_hd__o21a_1
*I *1742:X O *D sky130_fd_sc_hd__mux4_1
*CAP
1 *1743:A2 6.19179e-05
2 *1742:X 6.19179e-05
3 *1743:A2 *1949:CLK 4.82919e-05
4 *1743:A2 *267:71 0.000136877
5 *1743:A2 *410:43 2.75229e-05
6 *163:20 *1743:A2 7.36562e-05
*RES
1 *1742:X *1743:A2 9.285 
*END

*D_NET *257 0.000465859
*CONN
*I *1747:A2 I *D sky130_fd_sc_hd__a22o_1
*I *1743:X O *D sky130_fd_sc_hd__o21a_1
*CAP
1 *1747:A2 5.56072e-05
2 *1743:X 5.56072e-05
3 *1747:A2 *1747:B1 4.66108e-05
4 *1747:A2 *267:71 0.000139238
5 *1747:A2 *417:12 4.66108e-05
6 *1914:D *1747:A2 1.80524e-05
7 *29:12 *1747:A2 0.000104132
*RES
1 *1743:X *1747:A2 9.285 
*END

*D_NET *258 0.00170238
*CONN
*I *1746:A0 I *D sky130_fd_sc_hd__mux2_1
*I *1744:X O *D sky130_fd_sc_hd__mux4_1
*CAP
1 *1746:A0 0.000514537
2 *1744:X 0.000514537
3 *1746:A0 *1744:A3 0.000220654
4 *1746:A0 *1746:A1 0.000249921
5 *1746:A0 *272:84 0.000122325
6 *1746:A0 *277:18 8.53113e-06
7 *2047:D *1746:A0 7.18738e-05
*RES
1 *1744:X *1746:A0 15.39 
*END

*D_NET *259 0.00254797
*CONN
*I *1746:A1 I *D sky130_fd_sc_hd__mux2_1
*I *1745:X O *D sky130_fd_sc_hd__mux4_1
*CAP
1 *1746:A1 0.000584093
2 *1745:X 0.000584093
3 *1746:A1 *1744:S0 0.000660128
4 *1746:A1 *1745:S1 2.75145e-05
5 *1746:A1 *1872:A1 0
6 *1746:A1 *269:77 2.65814e-06
7 *1746:A1 *272:84 0
8 *1746:A1 *277:18 0.000337229
9 *1746:A1 *407:285 3.16418e-05
10 *1746:A1 *408:239 7.06865e-05
11 *1746:A1 *431:23 0
12 *1644:B1 *1746:A1 0
13 *1746:A0 *1746:A1 0.000249921
14 *1971:D *1746:A1 0
*RES
1 *1745:X *1746:A1 20.445 
*END

*D_NET *260 0.00607068
*CONN
*I *1747:B1 I *D sky130_fd_sc_hd__a22o_1
*I *1746:X O *D sky130_fd_sc_hd__mux2_1
*CAP
1 *1747:B1 0.00148714
2 *1746:X 0.00148714
3 *1747:B1 *1746:S 3.00381e-05
4 *1747:B1 *1781:A0 7.06865e-05
5 *1747:B1 *1795:A0 0.000130668
6 *1747:B1 *1917:CLK 0.0010832
7 *1747:B1 *262:81 9.37731e-05
8 *1747:B1 *265:34 0
9 *1747:B1 *267:56 0
10 *1747:B1 *267:71 0
11 *1747:B1 *314:12 0.000353527
12 *1747:B1 *417:12 0.0001022
13 *1747:B1 *422:26 0
14 *1747:B1 *422:43 0
15 *1747:B1 *424:25 0.000152814
16 *1747:B1 *424:29 0.000357541
17 *1644:B1 *1747:B1 0
18 *1747:A2 *1747:B1 4.66108e-05
19 *1894:D *1747:B1 0
20 *1914:D *1747:B1 1.88904e-05
21 *1915:D *1747:B1 0.000115844
22 *29:12 *1747:B1 0.000437398
23 *163:36 *1747:B1 0.0001032
*RES
1 *1746:X *1747:B1 44.205 
*END

*D_NET *261 0.00400083
*CONN
*I *1749:C I *D sky130_fd_sc_hd__nand4b_4
*I *1813:D I *D sky130_fd_sc_hd__and4bb_4
*I *1785:D I *D sky130_fd_sc_hd__nand4_4
*I *1794:D I *D sky130_fd_sc_hd__and4b_4
*I *1748:Y O *D sky130_fd_sc_hd__nor2_2
*CAP
1 *1749:C 2.08101e-05
2 *1813:D 0.000182076
3 *1785:D 0
4 *1794:D 0.000119415
5 *1748:Y 0.000482766
6 *261:16 0.000119415
7 *261:14 0.000360299
8 *261:8 0.0006818
9 *1794:D *1794:B 0.000229536
10 *1794:D *1794:C 2.0514e-05
11 *1794:D *295:8 6.90771e-05
12 *1794:D *447:18 5.58206e-05
13 *1813:D *1758:B 1.91597e-05
14 *1813:D *1758:C 0.000120655
15 *1813:D *408:90 0.000160658
16 *1813:D *411:111 0.000241954
17 *1813:D *411:126 5.53249e-06
18 *1813:D *450:131 2.97004e-06
19 *1813:D *450:140 1.44259e-05
20 *1813:D *450:196 4.62226e-05
21 *261:8 *1709:A 4.82863e-05
22 *261:8 *1709:B 4.58257e-05
23 *261:8 *1749:A_N 4.66108e-05
24 *261:8 *1749:B 4.82919e-05
25 *261:8 *262:6 1.17409e-05
26 *261:8 *262:67 5.26024e-05
27 *261:8 *409:94 5.02221e-05
28 *261:8 *412:106 8.23457e-05
29 *261:8 *413:80 4.9253e-06
30 *261:14 *262:67 3.31103e-05
31 *261:14 *411:111 0.000181307
32 *261:14 *450:131 5.64057e-05
33 *261:14 *451:115 0.000181376
34 *1758:D *1813:D 0.00015639
35 *230:14 *261:8 4.82863e-05
*RES
1 *1748:Y *261:8 9.31 
2 *261:8 *261:14 6.725 
3 *261:14 *261:16 2 
4 *261:16 *1794:D 4.855 
5 *261:16 *1785:D 1.6 
6 *261:14 *1813:D 9.375 
7 *261:8 *1749:C 1.96 
*END

*D_NET *262 0.0343337
*CONN
*I *1750:S I *D sky130_fd_sc_hd__mux2_1
*I *1757:S I *D sky130_fd_sc_hd__mux2_1
*I *1754:S I *D sky130_fd_sc_hd__mux2_1
*I *1752:S I *D sky130_fd_sc_hd__mux2_1
*I *1755:S I *D sky130_fd_sc_hd__mux2_1
*I *1751:S I *D sky130_fd_sc_hd__mux2_1
*I *1756:S I *D sky130_fd_sc_hd__mux2_1
*I *1753:S I *D sky130_fd_sc_hd__mux2_1
*I *1749:Y O *D sky130_fd_sc_hd__nand4b_4
*CAP
1 *1750:S 2.08101e-05
2 *1757:S 0.000552734
3 *1754:S 0.000112823
4 *1752:S 0.000208236
5 *1755:S 0.000205037
6 *1751:S 0
7 *1756:S 0.000815513
8 *1753:S 0
9 *1749:Y 3.48656e-05
10 *262:115 0.00154624
11 *262:92 0.0016104
12 *262:81 0.00369196
13 *262:67 0.00344119
14 *262:36 0.00212496
15 *262:28 0.00645632
16 *262:6 0.00563668
17 *1752:S *453:131 0.000421919
18 *1752:S *453:133 4.40028e-05
19 *1754:S *1818:A0 0.000271694
20 *1754:S *455:169 2.16833e-05
21 *1755:S *1755:A0 4.35348e-05
22 *1755:S *1755:A1 8.52845e-05
23 *1756:S *1753:A0 8.65961e-05
24 *1756:S *1753:A1 0.000387896
25 *1756:S *1756:A1 3.45588e-05
26 *1756:S *1789:A1 6.05513e-05
27 *1756:S *1820:S 0.000236313
28 *1756:S *402:10 3.45588e-05
29 *1757:S *1653:S0 0.000665545
30 *1757:S *1968:CLK 0
31 *1757:S *436:36 8.52845e-05
32 *262:28 *2126:A 2.05641e-05
33 *262:28 *264:8 0.000111986
34 *262:28 *266:19 0.000204518
35 *262:28 *407:234 0.000129969
36 *262:28 *408:49 0.000171323
37 *262:28 *408:117 1.17114e-05
38 *262:28 *409:63 0.000152492
39 *262:28 *452:16 0.000175915
40 *262:28 *452:32 0.000270641
41 *262:36 *1820:S 0.000428764
42 *262:36 *1919:CLK 4.66826e-05
43 *262:36 *2126:A 0.000657701
44 *262:67 *1749:B 2.75229e-05
45 *262:81 *1746:S 9.91257e-05
46 *262:81 *1875:A0 0.000242187
47 *262:81 *1875:S 0.00011964
48 *262:92 *1637:S1 0
49 *262:92 *433:10 0.000508319
50 *262:92 *433:14 0.000132961
51 *262:115 *1631:A2 0.000140433
52 *262:115 *1631:A3 5.4003e-05
53 *262:115 *1631:S1 2.61346e-05
54 *262:115 *1637:S1 6.24628e-05
55 *262:115 *1653:S0 0.000114492
56 *262:115 *1818:A0 0
57 *262:115 *1982:CLK 0
58 *262:115 *407:89 0.000551127
59 *262:115 *433:10 8.30853e-06
60 *262:115 *433:76 0.000166302
61 *262:115 *433:122 0.000115646
62 *1644:B1 *262:81 0
63 *1747:B1 *262:81 9.37731e-05
64 *1896:D *262:115 0.000138761
65 *1897:D *1756:S 0
66 *1919:D *262:36 9.89424e-05
67 *1982:D *1754:S 6.95204e-05
68 *1982:D *262:115 9.74933e-05
69 *2066:D *262:81 4.95861e-05
70 *261:8 *262:6 1.17409e-05
71 *261:8 *262:67 5.26024e-05
72 *261:14 *262:67 3.31103e-05
*RES
1 *1749:Y *262:6 2.05 
2 *262:6 *262:28 13.6141 
3 *262:28 *262:36 19.035 
4 *262:36 *1753:S 1.6 
5 *262:36 *1756:S 21.08 
6 *262:28 *1751:S 1.6 
7 *262:6 *262:67 6.675 
8 *262:67 *262:81 39.865 
9 *262:81 *1755:S 4.81 
10 *262:81 *262:92 12.05 
11 *262:92 *1752:S 8.19 
12 *262:92 *262:115 19.47 
13 *262:115 *1754:S 6.465 
14 *262:115 *1757:S 14.955 
15 *262:67 *1750:S 1.96 
*END

*D_NET *263 0.0191337
*CONN
*I *1760:S I *D sky130_fd_sc_hd__mux2_1
*I *1762:S I *D sky130_fd_sc_hd__mux2_1
*I *1759:S I *D sky130_fd_sc_hd__mux2_1
*I *1763:S I *D sky130_fd_sc_hd__mux2_1
*I *1764:S I *D sky130_fd_sc_hd__mux2_1
*I *1765:S I *D sky130_fd_sc_hd__mux2_1
*I *1766:S I *D sky130_fd_sc_hd__mux2_1
*I *1761:S I *D sky130_fd_sc_hd__mux2_1
*I *1758:X O *D sky130_fd_sc_hd__and4b_4
*CAP
1 *1760:S 0
2 *1762:S 0.00116957
3 *1759:S 0
4 *1763:S 0.000215273
5 *1764:S 0
6 *1765:S 0.000138958
7 *1766:S 0
8 *1761:S 5.65519e-05
9 *1758:X 4.69639e-05
10 *263:110 0.00165474
11 *263:95 0.00115057
12 *263:55 0.000642442
13 *263:44 0.000940195
14 *263:36 0.00046599
15 *263:32 0.00136845
16 *263:6 0.00177971
17 *1761:S *1761:A0 0.000274659
18 *1761:S *267:32 0.000157959
19 *1762:S *1774:S 0.000113565
20 *1762:S *1796:A1 0.000371117
21 *1762:S *1949:CLK 0.000347922
22 *1762:S *409:133 0.000235568
23 *1762:S *410:49 0.000294367
24 *1762:S *425:12 0
25 *1762:S *425:75 0
26 *1763:S *454:28 0.000678486
27 *1763:S *455:104 0.00032669
28 *1763:S *455:145 8.7442e-05
29 *1765:S *1655:S0 0
30 *1765:S *1765:A1 4.82919e-05
31 *1765:S *455:160 2.30292e-05
32 *263:6 *411:126 1.83847e-05
33 *263:6 *447:18 6.52265e-05
34 *263:32 *1639:A2 2.97473e-05
35 *263:32 *1639:S0 0.00034936
36 *263:32 *1962:CLK 1.7824e-05
37 *263:32 *267:14 0.000117775
38 *263:32 *267:32 0.000284649
39 *263:32 *422:26 7.23602e-05
40 *263:32 *447:18 7.00889e-06
41 *263:36 *1639:A2 7.53161e-05
42 *263:36 *267:32 0.000232105
43 *263:44 *1639:A2 1.08758e-05
44 *263:44 *1761:A0 7.49327e-05
45 *263:44 *1764:A0 0.000120655
46 *263:44 *267:32 0.000436948
47 *263:44 *434:23 0.000163199
48 *263:44 *456:108 0.000793974
49 *263:55 *1655:S0 0
50 *263:55 *1761:A0 0.000162412
51 *263:55 *1775:A1 0.000204595
52 *263:55 *1779:A0 9.79385e-05
53 *263:55 *318:10 7.26551e-05
54 *263:55 *436:69 0
55 *263:95 *1716:A0 0
56 *263:95 *1759:A1 0
57 *263:95 *1794:A_N 2.65028e-05
58 *263:95 *1814:A0 0
59 *263:95 *267:14 2.82846e-05
60 *263:95 *267:56 0
61 *263:95 *267:71 0
62 *263:95 *422:18 0.000339191
63 *263:95 *451:158 0
64 *263:95 *451:169 0
65 *263:110 *1724:A1 0
66 *263:110 *1724:A2 1.61831e-05
67 *263:110 *1759:A1 0
68 *263:110 *1780:A1 3.09233e-05
69 *263:110 *1796:A1 0
70 *263:110 *320:6 5.34747e-05
71 *263:110 *407:51 0.000198934
72 *263:110 *416:138 4.92014e-05
73 *263:110 *452:150 4.82919e-05
74 *1636:A1 *263:95 4.91189e-05
75 *1636:A1 *263:110 6.31804e-05
76 *1640:A2 *263:32 8.65905e-05
77 *1731:B2 *1762:S 4.66742e-05
78 *1739:A1 *263:55 0
79 *1879:S *263:55 0.000866193
80 *1883:S *1765:S 0.00012904
81 *1883:S *263:55 0.000563613
82 *1940:D *263:44 0.000194979
83 *1943:D *1763:S 9.30787e-05
84 *1962:D *263:32 4.47042e-05
85 *1978:D *263:95 0
86 *2052:D *263:95 3.68769e-05
87 *2053:D *1762:S 6.37749e-05
88 *2053:D *263:110 0
89 *163:16 *1762:S 4.21973e-05
90 *163:16 *263:110 0
91 *163:22 *263:95 0
92 *163:22 *263:110 0
93 *163:36 *263:95 0
94 *164:8 *1762:S 6.61795e-05
*RES
1 *1758:X *263:6 2.74 
2 *263:6 *263:32 20.65 
3 *263:32 *263:36 2.535 
4 *263:36 *263:44 12.66 
5 *263:44 *1761:S 4.12 
6 *263:44 *263:55 18.425 
7 *263:55 *1766:S 3.6 
8 *263:55 *1765:S 6.39 
9 *263:36 *1764:S 1.6 
10 *263:32 *1763:S 13.61 
11 *263:6 *263:95 14.345 
12 *263:95 *1759:S 3.6 
13 *263:95 *263:110 11.105 
14 *263:110 *1762:S 25.82 
15 *263:110 *1760:S 1.6 
*END

*D_NET *264 0.0205956
*CONN
*I *1769:S I *D sky130_fd_sc_hd__mux2_1
*I *1768:S I *D sky130_fd_sc_hd__mux2_1
*I *1774:S I *D sky130_fd_sc_hd__mux2_1
*I *1771:S I *D sky130_fd_sc_hd__mux2_1
*I *1772:S I *D sky130_fd_sc_hd__mux2_1
*I *1773:S I *D sky130_fd_sc_hd__mux2_1
*I *1775:S I *D sky130_fd_sc_hd__mux2_1
*I *1770:S I *D sky130_fd_sc_hd__mux2_1
*I *1767:Y O *D sky130_fd_sc_hd__nand4b_4
*CAP
1 *1769:S 0.000363072
2 *1768:S 0.000231798
3 *1774:S 0.00111274
4 *1771:S 0
5 *1772:S 1.758e-05
6 *1773:S 0
7 *1775:S 0.000217691
8 *1770:S 0.000343227
9 *1767:Y 0.000304863
10 *264:102 0.000690165
11 *264:68 0.00163503
12 *264:30 0.00118484
13 *264:26 0.000915713
14 *264:20 0.000492324
15 *264:16 0.00204011
16 *264:8 0.00173502
17 *1768:S *1718:A0 0.00022786
18 *1768:S *1768:A1 4.7242e-05
19 *1769:S *1719:B1 0
20 *1769:S *1769:A0 4.82863e-05
21 *1769:S *311:12 9.37731e-05
22 *1769:S *407:12 0.000119756
23 *1769:S *408:80 0.00036366
24 *1769:S *452:32 0.00016322
25 *1770:S *1734:A2 0.000160658
26 *1770:S *2057:CLK 0
27 *1770:S *408:402 8.08153e-06
28 *1770:S *434:12 0.000341546
29 *1770:S *434:23 0
30 *1770:S *436:77 0.000157716
31 *1772:S *1772:A1 1.71013e-05
32 *1772:S *410:57 5.98004e-06
33 *1774:S *1742:A3 0.000144304
34 *1774:S *1771:A1 1.03503e-05
35 *1774:S *1783:A1 4.85494e-05
36 *1774:S *407:51 0.000204901
37 *1774:S *407:167 1.92187e-05
38 *1774:S *410:49 0.000462835
39 *1774:S *424:65 4.70995e-05
40 *1775:S *1733:A 2.05056e-05
41 *1775:S *1775:A1 4.99619e-05
42 *1775:S *408:402 0.000133178
43 *1775:S *436:69 2.67022e-05
44 *1775:S *436:77 0.000106467
45 *264:8 *1719:B1 0
46 *264:8 *409:63 0.000911679
47 *264:8 *452:32 4.5783e-05
48 *264:16 *2076:A 0.000374368
49 *264:16 *422:12 0.000146744
50 *264:20 *1772:A1 8.49205e-05
51 *264:20 *1781:A1 0.000124895
52 *264:20 *455:117 0.000122337
53 *264:26 *410:57 4.83411e-05
54 *264:26 *454:28 0
55 *264:30 *1773:A0 0.000242362
56 *264:30 *408:431 1.19928e-05
57 *264:30 *434:12 8.49205e-05
58 *264:30 *434:50 0.000311288
59 *264:30 *434:59 8.40213e-05
60 *264:68 *1771:A1 3.69913e-05
61 *264:68 *1780:A1 3.50599e-05
62 *264:68 *1917:CLK 0
63 *264:68 *424:14 9.78647e-05
64 *264:68 *424:50 2.88436e-05
65 *264:102 *311:12 5.16348e-05
66 *264:102 *452:32 0.000147193
67 *1723:A1 *264:8 7.89611e-05
68 *1723:B1 *264:8 0.000668893
69 *1731:B1 *264:8 0
70 *1762:S *1774:S 0.000113565
71 *1916:D *1774:S 4.92048e-05
72 *1916:D *264:68 3.69682e-05
73 *1930:D *264:16 0.000126073
74 *1938:D *1769:S 7.21296e-06
75 *1942:D *264:20 1.4399e-05
76 *1946:D *264:16 0.000161813
77 *1946:D *264:102 0.000108447
78 *1950:D *264:68 3.39064e-05
79 *164:34 *1774:S 0.000608338
80 *164:73 *264:68 0.000958519
81 *176:14 *1772:S 2.7881e-05
82 *176:14 *264:26 0.000163339
83 *231:24 *1768:S 2.16917e-05
84 *262:28 *264:8 0.000111986
*RES
1 *1767:Y *264:8 15.18 
2 *264:8 *264:16 18.095 
3 *264:16 *264:20 5.555 
4 *264:20 *264:26 7.505 
5 *264:26 *264:30 13.145 
6 *264:30 *1770:S 11.865 
7 *264:30 *1775:S 8.58 
8 *264:26 *1773:S 1.6 
9 *264:20 *1772:S 4.215 
10 *264:16 *264:68 14.855 
11 *264:68 *1771:S 3.6 
12 *264:68 *1774:S 23.1 
13 *264:8 *264:102 3.165 
14 *264:102 *1768:S 7.635 
15 *264:102 *1769:S 12.495 
*END

*D_NET *265 0.0209656
*CONN
*I *1780:S I *D sky130_fd_sc_hd__mux2_1
*I *1778:S I *D sky130_fd_sc_hd__mux2_1
*I *1777:S I *D sky130_fd_sc_hd__mux2_1
*I *1782:S I *D sky130_fd_sc_hd__mux2_1
*I *1783:S I *D sky130_fd_sc_hd__mux2_1
*I *1784:S I *D sky130_fd_sc_hd__mux2_1
*I *1779:S I *D sky130_fd_sc_hd__mux2_1
*I *1781:S I *D sky130_fd_sc_hd__mux2_1
*I *1776:X O *D sky130_fd_sc_hd__and4bb_4
*CAP
1 *1780:S 0.00138045
2 *1778:S 7.70621e-05
3 *1777:S 0
4 *1782:S 0
5 *1783:S 0.000476909
6 *1784:S 0
7 *1779:S 0.000662034
8 *1781:S 0.000124456
9 *1776:X 0
10 *265:110 0.00190703
11 *265:101 0.00116133
12 *265:57 0.000758336
13 *265:55 0.00135443
14 *265:34 0.00144223
15 *265:26 0.00206385
16 *265:4 0.0022391
17 *1778:S *1724:A0 2.30292e-05
18 *1778:S *1778:A1 8.40269e-05
19 *1778:S *304:12 2.05056e-05
20 *1779:S *1779:A1 1.85674e-05
21 *1779:S *1784:A0 0.000227543
22 *1779:S *1784:A1 4.66826e-05
23 *1780:S *1780:A1 1.22505e-05
24 *1781:S *1781:A1 0.000319847
25 *1783:S *1648:B1 6.58955e-06
26 *1783:S *409:166 0.000105849
27 *1783:S *421:78 2.11674e-05
28 *1783:S *455:160 0
29 *265:26 *1767:A_N 1.34503e-05
30 *265:26 *1767:B 2.10011e-05
31 *265:26 *1782:A0 0
32 *265:26 *1785:A 4.66108e-05
33 *265:26 *1786:A1 7.06865e-05
34 *265:26 *1786:S 6.1357e-05
35 *265:26 *1951:CLK 7.35813e-05
36 *265:26 *1954:CLK 1.81793e-05
37 *265:26 *295:8 0.000382752
38 *265:26 *416:180 2.72581e-05
39 *265:26 *451:115 0.000267846
40 *265:26 *451:141 7.23533e-05
41 *265:34 *1629:S1 2.60986e-05
42 *265:34 *1640:B1 0.00020613
43 *265:34 *1781:A1 0.00035893
44 *265:34 *1917:CLK 0
45 *265:34 *1962:CLK 1.88904e-05
46 *265:34 *422:26 5.34443e-05
47 *265:34 *422:43 4.26331e-05
48 *265:55 *1881:A0 4.80285e-05
49 *265:55 *315:10 0.00015896
50 *265:101 *1714:A 0
51 *265:101 *1768:A0 0.000141599
52 *265:101 *1776:C 6.10014e-05
53 *265:101 *1777:A0 2.23485e-05
54 *265:101 *1785:A 0.000123225
55 *265:101 *303:10 7.17811e-05
56 *1630:B *1781:S 2.16917e-05
57 *1644:A2 *265:34 8.49583e-05
58 *1644:B1 *265:34 0.000374561
59 *1644:B2 *265:34 3.63701e-06
60 *1646:A *1783:S 0.000166628
61 *1652:B1 *1779:S 6.63913e-05
62 *1660:A2 *1783:S 0.000316118
63 *1660:B1 *1783:S 0
64 *1715:B *265:101 0
65 *1719:A1 *265:101 0
66 *1719:A1 *265:110 0
67 *1725:B *265:110 0
68 *1731:B1 *265:26 0.000155928
69 *1731:B1 *265:101 0.0003646
70 *1731:B1 *265:110 0.000348679
71 *1739:A1 *1779:S 2.36716e-05
72 *1739:B2 *1779:S 0.000176633
73 *1747:B1 *265:34 0
74 *1767:C *265:26 1.56428e-05
75 *1776:D *265:26 4.66108e-05
76 *1776:D *265:101 0.000114024
77 *1942:D *265:34 0.000312771
78 *1942:D *265:55 0.000114492
79 *1947:D *265:110 5.4256e-05
80 *1953:D *1779:S 0.00010641
81 *1954:D *265:26 0.0001916
82 *1962:D *265:34 2.16529e-05
83 *2055:D *1783:S 0
84 *164:34 *1783:S 0
85 *164:73 *265:34 0.000145318
86 *164:86 *265:34 7.09019e-05
87 *176:14 *265:34 0
88 *176:14 *265:55 0
89 *197:16 *1779:S 0.000202686
90 *230:25 *265:26 0.00013521
91 *230:36 *265:26 3.09233e-05
92 *231:12 *265:101 0
93 *231:45 *1781:S 0.000378181
*RES
1 *1776:X *265:4 1.6 
2 *265:4 *265:26 29.735 
3 *265:26 *265:34 17.195 
4 *265:34 *1781:S 7.845 
5 *265:34 *265:55 13.625 
6 *265:55 *265:57 1.485 
7 *265:57 *1779:S 18.65 
8 *265:57 *1784:S 1.6 
9 *265:55 *1783:S 16.16 
10 *265:26 *1782:S 1.6 
11 *265:4 *265:101 17.27 
12 *265:101 *1777:S 3.6 
13 *265:101 *265:110 10.05 
14 *265:110 *1778:S 5.085 
15 *265:110 *1780:S 6.7933 
*END

*D_NET *266 0.023606
*CONN
*I *1787:S I *D sky130_fd_sc_hd__mux2_1
*I *1789:S I *D sky130_fd_sc_hd__mux2_1
*I *1792:S I *D sky130_fd_sc_hd__mux2_1
*I *1793:S I *D sky130_fd_sc_hd__mux2_1
*I *1790:S I *D sky130_fd_sc_hd__mux2_1
*I *1788:S I *D sky130_fd_sc_hd__mux2_1
*I *1791:S I *D sky130_fd_sc_hd__mux2_1
*I *1786:S I *D sky130_fd_sc_hd__mux2_1
*I *1785:Y O *D sky130_fd_sc_hd__nand4_4
*CAP
1 *1787:S 9.07632e-05
2 *1789:S 2.58841e-05
3 *1792:S 0
4 *1793:S 0
5 *1790:S 0
6 *1788:S 4.89253e-05
7 *1791:S 0.000579078
8 *1786:S 0.000152521
9 *1785:Y 0
10 *266:73 0.000873717
11 *266:71 0.000778326
12 *266:65 0.00143812
13 *266:53 0.00194088
14 *266:35 0.00296261
15 *266:19 0.00297589
16 *266:6 0.00113629
17 *1786:S *1767:A_N 0.0002823
18 *1786:S *1786:A1 4.82863e-05
19 *1786:S *416:92 2.96334e-05
20 *1786:S *416:180 5.21706e-05
21 *1786:S *450:131 0.000159964
22 *1786:S *451:115 0.000267846
23 *1787:S *1740:S1 2.26717e-05
24 *1787:S *1787:A0 4.66108e-05
25 *1787:S *1815:A1 3.74161e-05
26 *1787:S *1815:S 0.000201649
27 *1787:S *296:6 2.35892e-05
28 *1788:S *1788:A0 3.64998e-06
29 *1788:S *1788:A1 1.83756e-05
30 *1789:S *1647:S0 3.54536e-05
31 *1791:S *1637:S0 0
32 *1791:S *1788:A0 0.000111869
33 *1791:S *1788:A1 5.99925e-05
34 *1791:S *1791:A0 0.000394699
35 *1791:S *1791:A1 2.30292e-05
36 *1791:S *1797:A0 0.000249914
37 *1791:S *1797:S 7.89767e-05
38 *1791:S *297:8 8.89673e-05
39 *1791:S *456:134 4.99619e-05
40 *266:19 *1718:A3 5.39961e-05
41 *266:19 *1726:S0 0.000155247
42 *266:19 *1759:A0 3.86802e-05
43 *266:19 *1767:A_N 9.50342e-06
44 *266:19 *1815:S 6.71803e-06
45 *266:19 *1938:CLK 0.000352073
46 *266:19 *270:91 0.000277387
47 *266:19 *319:8 7.18738e-05
48 *266:19 *407:18 0.000249935
49 *266:19 *407:248 0.000592427
50 *266:19 *408:45 0
51 *266:19 *408:49 0
52 *266:19 *408:90 0.000102179
53 *266:19 *408:117 6.36772e-05
54 *266:19 *409:38 7.16181e-05
55 *266:19 *409:52 0.00107252
56 *266:19 *422:8 0.00013687
57 *266:19 *425:44 1.08723e-05
58 *266:19 *450:131 2.30797e-05
59 *266:19 *450:140 5.16348e-05
60 *266:19 *450:196 0.000309452
61 *266:35 *1647:S0 0.000142233
62 *266:35 *1726:A2 0.000385745
63 *266:35 *1740:A2 9.3229e-06
64 *266:35 *1740:A3 5.05521e-05
65 *266:35 *1740:S0 2.49909e-05
66 *266:35 *1740:S1 4.66742e-05
67 *266:35 *1815:S 2.23407e-05
68 *266:35 *1916:CLK 6.27438e-05
69 *266:35 *2123:A 8.8266e-05
70 *266:35 *408:30 2.54692e-05
71 *266:35 *408:45 2.24423e-05
72 *266:53 *1647:A1 9.35611e-05
73 *266:53 *1647:S0 0.000231655
74 *266:53 *1654:A 0.0001249
75 *266:53 *1792:A1 2.49909e-05
76 *266:53 *1820:A0 4.14369e-05
77 *266:53 *397:10 0.00013521
78 *266:53 *421:10 0
79 *266:65 *1645:A3 7.25441e-05
80 *266:65 *1647:S1 0
81 *266:65 *1792:A1 3.09233e-05
82 *266:65 *1944:CLK 0.000362285
83 *266:65 *2073:A 0.000296006
84 *266:65 *420:6 0.000344834
85 *266:71 *1754:A1 0
86 *266:71 *1790:A1 0.00015952
87 *266:71 *1818:A0 0
88 *266:71 *299:10 0.000101317
89 *266:71 *395:10 0
90 *266:71 *420:57 0
91 *266:71 *436:10 0
92 *266:71 *455:175 3.85797e-05
93 *266:73 *1790:A0 1.01661e-05
94 *266:73 *1790:A1 5.53249e-06
95 *1646:B *266:65 1.08758e-05
96 *1648:A2 *266:53 0.00012657
97 *1878:S *266:19 0.000404416
98 *1883:S *266:65 8.26536e-05
99 *1898:D *266:71 7.89767e-05
100 *1916:D *266:35 3.24154e-05
101 *1918:D *266:19 0.000155694
102 *1918:D *266:35 0.000136725
103 *1957:D *266:53 4.99619e-05
104 *1984:D *266:53 8.90227e-05
105 *2058:D *266:65 0.000278795
106 *262:28 *266:19 0.000204518
107 *265:26 *1786:S 6.1357e-05
*RES
1 *1785:Y *266:6 3.6 
2 *266:6 *1786:S 9.045 
3 *266:6 *266:19 32.6175 
4 *266:19 *266:35 27.8225 
5 *266:35 *266:53 22 
6 *266:53 *266:65 23.56 
7 *266:65 *266:71 12.5 
8 *266:71 *266:73 4.185 
9 *266:73 *1791:S 17.01 
10 *266:73 *1788:S 4.395 
11 *266:71 *1790:S 3.6 
12 *266:65 *1793:S 1.6 
13 *266:53 *1792:S 1.6 
14 *266:35 *1789:S 2.41 
15 *266:19 *1787:S 6.1125 
*END

*D_NET *267 0.0239371
*CONN
*I *1796:S I *D sky130_fd_sc_hd__mux2_1
*I *1798:S I *D sky130_fd_sc_hd__mux2_1
*I *1801:S I *D sky130_fd_sc_hd__mux2_1
*I *1802:S I *D sky130_fd_sc_hd__mux2_1
*I *1799:S I *D sky130_fd_sc_hd__mux2_1
*I *1795:S I *D sky130_fd_sc_hd__mux2_1
*I *1797:S I *D sky130_fd_sc_hd__mux2_1
*I *1800:S I *D sky130_fd_sc_hd__mux2_1
*I *1794:X O *D sky130_fd_sc_hd__and4b_4
*CAP
1 *1796:S 0.000277632
2 *1798:S 0
3 *1801:S 2.08101e-05
4 *1802:S 2.08101e-05
5 *1799:S 0.00111377
6 *1795:S 0
7 *1797:S 7.3998e-05
8 *1800:S 6.92146e-05
9 *1794:X 0.000413706
10 *267:89 0.0019688
11 *267:87 0.00205681
12 *267:73 0.0017342
13 *267:71 0.0017777
14 *267:56 0.00108756
15 *267:32 0.00266332
16 *267:14 0.00305372
17 *1796:S *1796:A0 0.0001249
18 *1796:S *409:148 0.000226431
19 *1797:S *1637:S0 0
20 *1799:S *1802:A0 5.05521e-05
21 *1799:S *1966:CLK 0
22 *1799:S *1969:CLK 0.000166346
23 *1799:S *420:22 0
24 *1799:S *420:35 0
25 *1799:S *420:57 0
26 *1799:S *420:59 0
27 *1800:S *456:134 5.30673e-05
28 *267:14 *1716:A1 7.63204e-05
29 *267:14 *1794:A_N 8.94611e-05
30 *267:14 *1795:A0 0
31 *267:14 *295:8 8.34281e-06
32 *267:32 *1639:A1 2.49909e-05
33 *267:32 *1761:A0 4.43682e-05
34 *267:32 *1773:A1 5.23362e-05
35 *267:32 *1819:S 0.000233368
36 *267:32 *316:6 7.35813e-05
37 *267:32 *434:23 9.4087e-05
38 *267:32 *454:28 6.28765e-05
39 *267:32 *456:108 4.73168e-05
40 *267:32 *456:134 0.000375912
41 *267:56 *1795:A0 4.26188e-05
42 *267:71 *407:51 7.54419e-05
43 *267:73 *1798:A1 0.000122542
44 *267:73 *409:148 0.000265383
45 *267:73 *409:154 0.000199295
46 *267:73 *409:255 0.000387891
47 *267:87 *1798:A0 0.000120275
48 *267:87 *1798:A1 2.11084e-05
49 *267:87 *1801:A0 6.61178e-05
50 *267:87 *407:167 0
51 *267:87 *409:255 4.82919e-05
52 *267:87 *421:14 3.46272e-05
53 *267:87 *421:18 9.66882e-05
54 *267:87 *421:22 8.93264e-05
55 *267:89 *1801:A0 2.61299e-05
56 *267:89 *1802:A0 5.05437e-05
57 *1644:A1 *267:32 0.000225473
58 *1743:A2 *267:71 0.000136877
59 *1747:A1 *267:71 0.000112123
60 *1747:A2 *267:71 0.000139238
61 *1747:B1 *267:56 0
62 *1747:B1 *267:71 0
63 *1747:B2 *267:71 0
64 *1761:S *267:32 0.000157959
65 *1791:S *1797:S 7.89767e-05
66 *1914:D *267:71 6.15341e-05
67 *1917:D *267:32 0.000162397
68 *1932:D *267:32 4.99619e-05
69 *1949:D *267:71 0.000181376
70 *1954:D *267:14 4.82863e-05
71 *1962:D *267:32 0.00015639
72 *1965:D *267:87 9.66932e-05
73 *1968:D *267:89 1.4389e-05
74 *1969:D *1799:S 0
75 *1984:D *267:87 0.000143794
76 *2105:A *1799:S 0.000129424
77 *29:12 *267:71 0.000517027
78 *163:20 *267:71 9.0517e-05
79 *163:22 *267:71 0.000270457
80 *163:36 *267:56 2.97004e-06
81 *163:36 *267:71 0.00027892
82 *263:32 *267:14 0.000117775
83 *263:32 *267:32 0.000284649
84 *263:36 *267:32 0.000232105
85 *263:44 *267:32 0.000436948
86 *263:95 *267:14 2.82846e-05
87 *263:95 *267:56 0
88 *263:95 *267:71 0
*RES
1 *1794:X *267:14 13.19 
2 *267:14 *267:32 43.78 
3 *267:32 *1800:S 2.755 
4 *267:32 *1797:S 7.235 
5 *267:14 *267:56 4.145 
6 *267:56 *1795:S 3.6 
7 *267:56 *267:71 27.14 
8 *267:71 *267:73 12.18 
9 *267:73 *267:87 20.89 
10 *267:87 *267:89 11.835 
11 *267:89 *1799:S 24.41 
12 *267:89 *1802:S 1.96 
13 *267:87 *1801:S 1.96 
14 *267:73 *1798:S 1.6 
15 *267:71 *1796:S 7.225 
*END

*D_NET *268 0.00396649
*CONN
*I *1804:D I *D sky130_fd_sc_hd__nand4_4
*I *1841:D I *D sky130_fd_sc_hd__and4b_4
*I *1832:C I *D sky130_fd_sc_hd__nand4b_4
*I *1859:D I *D sky130_fd_sc_hd__and4bb_4
*I *1803:X O *D sky130_fd_sc_hd__and2_2
*CAP
1 *1804:D 0
2 *1841:D 0.000374852
3 *1832:C 0
4 *1859:D 0
5 *1803:X 0.000360363
6 *268:38 0.000453358
7 *268:27 0.000241323
8 *268:12 0.000523181
9 *1841:D *1841:B 6.33103e-05
10 *1841:D *275:111 0.00030448
11 *1841:D *408:117 7.44453e-05
12 *1841:D *451:115 0.000139252
13 *1841:D *452:32 3.86607e-05
14 *268:12 *1885:B 8.88715e-05
15 *268:12 *1885:C 0.000272984
16 *268:12 *1885:D 1.12578e-05
17 *268:12 *408:117 0.000114492
18 *268:12 *450:18 3.09164e-05
19 *268:12 *450:96 9.54469e-05
20 *268:27 *1832:A_N 8.40269e-05
21 *268:27 *276:16 0.000217555
22 *268:27 *408:117 1.1561e-05
23 *268:27 *450:14 0.000120655
24 *268:27 *452:32 0.000121865
25 *268:38 *1832:A_N 4.82863e-05
26 *268:38 *452:32 8.42239e-05
27 *1723:B1 *1841:D 2.67022e-05
28 *1723:B1 *268:38 6.4422e-05
*RES
1 *1803:X *268:12 11.225 
2 *268:12 *1859:D 1.6 
3 *268:12 *268:27 8.335 
4 *268:27 *1832:C 1.6 
5 *268:27 *268:38 4.34 
6 *268:38 *1841:D 14.11 
7 *268:38 *1804:D 3.6 
*END

*D_NET *269 0.0255804
*CONN
*I *1806:S I *D sky130_fd_sc_hd__mux2_1
*I *1808:S I *D sky130_fd_sc_hd__mux2_1
*I *1811:S I *D sky130_fd_sc_hd__mux2_1
*I *1812:S I *D sky130_fd_sc_hd__mux2_1
*I *1807:S I *D sky130_fd_sc_hd__mux2_1
*I *1805:S I *D sky130_fd_sc_hd__mux2_1
*I *1809:S I *D sky130_fd_sc_hd__mux2_1
*I *1810:S I *D sky130_fd_sc_hd__mux2_1
*I *1804:Y O *D sky130_fd_sc_hd__nand4_4
*CAP
1 *1806:S 2.86246e-05
2 *1808:S 0
3 *1811:S 0.000179814
4 *1812:S 0
5 *1807:S 0.0011955
6 *1805:S 0.000405583
7 *1809:S 0.0006935
8 *1810:S 0
9 *1804:Y 0.000190494
10 *269:107 0.00162993
11 *269:103 0.0026678
12 *269:77 0.00262645
13 *269:61 0.00110343
14 *269:26 0.00192684
15 *269:12 0.00235543
16 *269:8 0.00140892
17 *1805:S *383:8 0.000264794
18 *1806:S *1729:A3 9.53428e-06
19 *1806:S *1806:A0 1.31519e-05
20 *1806:S *407:285 0
21 *1807:S *1658:A0 0
22 *1807:S *1737:A1 9.38785e-05
23 *1807:S *1737:A3 2.39856e-05
24 *1807:S *1737:S0 4.04073e-05
25 *1807:S *1807:A0 4.66108e-05
26 *1807:S *1849:A0 0.000118279
27 *1807:S *374:10 7.35729e-05
28 *1807:S *385:8 3.90873e-06
29 *1807:S *390:12 0.00011852
30 *1807:S *427:79 0.000199833
31 *1807:S *453:70 0.000219299
32 *1809:S *1634:A2 0.000419386
33 *1809:S *1847:A0 0.000229362
34 *1809:S *1847:A1 8.65905e-05
35 *1809:S *2008:CLK 5.6361e-05
36 *1809:S *2040:CLK 0.000260008
37 *1809:S *274:53 2.76356e-05
38 *1809:S *388:12 0
39 *1809:S *407:463 0
40 *1809:S *408:216 0
41 *1809:S *455:73 1.37328e-05
42 *1811:S *1848:S 0
43 *1811:S *373:10 7.24866e-05
44 *1811:S *381:10 0
45 *1811:S *389:10 0.000140912
46 *269:8 *1729:A2 4.38051e-05
47 *269:8 *273:8 0.000247574
48 *269:8 *273:12 7.06865e-05
49 *269:8 *407:265 0
50 *269:8 *407:427 0
51 *269:8 *451:115 0.000262329
52 *269:8 *452:79 0.00012904
53 *269:8 *452:81 0.000121575
54 *269:12 *1721:A1 0.000122474
55 *269:12 *1729:A2 0.000326645
56 *269:12 *274:20 8.09021e-06
57 *269:12 *407:439 0
58 *269:12 *407:523 0
59 *269:12 *452:81 0.00028116
60 *269:12 *452:83 6.45236e-05
61 *269:12 *452:89 9.5433e-05
62 *269:26 *1847:A0 5.4256e-05
63 *269:26 *1865:A0 7.89269e-05
64 *269:26 *1865:A1 0.000164534
65 *269:26 *1970:CLK 0.000207896
66 *269:26 *388:12 2.11084e-05
67 *269:26 *429:46 0
68 *269:26 *456:41 0.00016569
69 *269:61 *1729:A2 1.10377e-05
70 *269:61 *1729:A3 5.26499e-05
71 *269:61 *1806:A0 5.15704e-06
72 *269:61 *407:285 0.000155957
73 *269:61 *407:415 4.58166e-05
74 *269:77 *1729:A3 2.11084e-05
75 *269:77 *1806:A0 1.33293e-05
76 *269:77 *1836:A1 0.000130348
77 *269:77 *1971:CLK 5.83121e-06
78 *269:77 *273:40 0.000179887
79 *269:77 *384:12 0
80 *269:77 *407:285 0.000279787
81 *269:77 *408:216 0
82 *269:77 *408:239 0.000330156
83 *269:77 *454:49 3.47837e-05
84 *269:77 *454:53 9.61344e-05
85 *269:77 *456:84 0
86 *269:103 *1830:A0 0.00022829
87 *269:103 *1830:A1 5.44786e-05
88 *269:103 *1830:S 0.000146275
89 *269:103 *1872:S 0
90 *269:103 *2009:CLK 8.43255e-05
91 *269:103 *2025:CLK 9.4087e-05
92 *269:103 *272:84 0.00112697
93 *269:103 *454:34 5.5201e-05
94 *269:103 *454:41 0.000311282
95 *269:103 *454:89 0.000123225
96 *269:107 *1848:S 0
97 *269:107 *1849:A0 2.78732e-05
98 *269:107 *390:12 1.1561e-05
99 *269:107 *436:133 7.21296e-06
100 *1746:A1 *269:77 2.65814e-06
101 *1970:D *1805:S 8.92483e-05
102 *1970:D *269:26 7.20071e-05
103 *1971:D *269:77 5.21697e-05
104 *1992:D *269:103 3.00381e-05
105 *2003:D *269:12 0.000143266
106 *2009:D *269:103 1.447e-05
107 *2013:D *1807:S 0
108 *2025:D *269:103 4.82319e-06
109 *2040:D *1809:S 0.000128642
*RES
1 *1804:Y *269:8 9.825 
2 *269:8 *269:12 17.15 
3 *269:12 *269:26 21.53 
4 *269:26 *1810:S 3.6 
5 *269:26 *1809:S 18.105 
6 *269:12 *1805:S 7.15 
7 *269:8 *269:61 8.33 
8 *269:61 *269:77 20.6 
9 *269:77 *269:103 35.75 
10 *269:103 *269:107 7.185 
11 *269:107 *1807:S 33.095 
12 *269:107 *1812:S 3.6 
13 *269:103 *1811:S 7.53 
14 *269:77 *1808:S 1.6 
15 *269:61 *1806:S 2.215 
*END

*D_NET *270 0.0271053
*CONN
*I *1815:S I *D sky130_fd_sc_hd__mux2_1
*I *1817:S I *D sky130_fd_sc_hd__mux2_1
*I *1820:S I *D sky130_fd_sc_hd__mux2_1
*I *1814:S I *D sky130_fd_sc_hd__mux2_1
*I *1816:S I *D sky130_fd_sc_hd__mux2_1
*I *1821:S I *D sky130_fd_sc_hd__mux2_1
*I *1818:S I *D sky130_fd_sc_hd__mux2_1
*I *1819:S I *D sky130_fd_sc_hd__mux2_1
*I *1813:X O *D sky130_fd_sc_hd__and4bb_4
*CAP
1 *1815:S 0.000419614
2 *1817:S 0
3 *1820:S 0.000942208
4 *1814:S 0
5 *1816:S 1.85694e-05
6 *1821:S 0.00039985
7 *1818:S 0.000114727
8 *1819:S 0.000284521
9 *1813:X 0.000345172
10 *270:105 0.00167499
11 *270:91 0.00203081
12 *270:47 0.00109456
13 *270:34 0.000974723
14 *270:30 0.00155372
15 *270:18 0.0015991
16 *270:16 0.00139774
17 *1815:S *1740:S1 9.29686e-05
18 *1815:S *1815:A1 0.00014502
19 *1815:S *296:6 0.000122331
20 *1815:S *408:45 3.9442e-05
21 *1816:S *1779:A1 9.53428e-06
22 *1818:S *455:160 0.00027345
23 *1819:S *433:10 1.53032e-05
24 *1819:S *433:76 7.21296e-06
25 *1819:S *433:122 8.18098e-05
26 *1819:S *453:116 2.97004e-06
27 *1819:S *453:125 6.65717e-05
28 *1819:S *453:164 0.000128032
29 *1819:S *456:108 0.000135758
30 *1819:S *457:31 0
31 *1820:S *1740:A1 3.09164e-05
32 *1820:S *1740:A3 0.00016063
33 *1820:S *1740:S1 0
34 *1820:S *1753:A1 0.000352161
35 *1820:S *1789:A1 0.00012657
36 *1820:S *1820:A1 5.4155e-06
37 *1820:S *1897:CLK 0
38 *1820:S *402:10 4.9968e-05
39 *1821:S *1821:A0 5.83121e-06
40 *1821:S *1968:CLK 1.71013e-05
41 *1821:S *436:48 0.000440039
42 *1821:S *457:18 0.000162332
43 *270:16 *1758:B 4.66108e-05
44 *270:16 *407:248 7.89641e-05
45 *270:16 *409:52 1.33205e-05
46 *270:30 *1640:B1 0.000347922
47 *270:30 *1735:B1 0.000763241
48 *270:30 *1779:A0 0.000112631
49 *270:30 *1779:A1 7.67415e-06
50 *270:30 *1814:A1 2.75145e-05
51 *270:34 *1779:A1 2.30292e-05
52 *270:34 *1816:A0 0.000462829
53 *270:34 *408:431 6.52265e-05
54 *270:34 *453:164 0.000385333
55 *270:47 *1631:S1 9.27816e-05
56 *270:47 *1937:CLK 0.000150888
57 *270:47 *433:122 2.12832e-05
58 *270:47 *436:48 0.000113964
59 *270:47 *457:31 0
60 *270:91 *1759:A0 0.000346378
61 *270:91 *1939:CLK 0.000226848
62 *270:91 *2078:A 0.000167621
63 *270:91 *319:8 0.000140905
64 *270:91 *407:18 3.68705e-05
65 *270:91 *408:80 0.000356583
66 *270:91 *408:90 0.000356576
67 *270:91 *416:120 0
68 *270:91 *425:12 0
69 *270:91 *425:44 0.000126392
70 *270:91 *425:75 0
71 *270:91 *425:84 0
72 *270:91 *452:150 0.000405104
73 *270:105 *1740:S1 0.00017941
74 *270:105 *1955:CLK 0.000332115
75 *270:105 *1963:CLK 0.000165104
76 *1717:B *270:16 0.000289715
77 *1723:B2 *270:16 0.000148956
78 *1733:B *270:47 5.20968e-05
79 *1739:A1 *270:30 0.000497687
80 *1739:A2 *270:30 0.000123225
81 *1739:B2 *270:30 2.94764e-05
82 *1756:S *1820:S 0.000236313
83 *1758:D *270:16 2.68464e-05
84 *1787:S *1815:S 0.000201649
85 *1878:S *270:91 9.61052e-05
86 *1916:D *1820:S 8.5225e-05
87 *1918:D *270:91 0.000335858
88 *1919:D *1820:S 0.00013188
89 *1932:D *1819:S 0.000266612
90 *1937:D *270:47 0
91 *1955:D *1815:S 0.00010978
92 *1955:D *270:105 0.000139577
93 *1957:D *1820:S 1.43717e-05
94 *1963:D *270:105 0.000473379
95 *1978:D *270:30 7.10578e-05
96 *1979:D *1815:S 4.66108e-05
97 *1985:D *1821:S 7.21296e-06
98 *2058:D *1821:S 9.30787e-05
99 *29:12 *270:30 0.00150773
100 *163:36 *270:30 0.000237249
101 *164:73 *270:30 4.01778e-05
102 *262:36 *1820:S 0.000428764
103 *266:19 *1815:S 6.71803e-06
104 *266:19 *270:91 0.000277387
105 *266:35 *1815:S 2.23407e-05
106 *267:32 *1819:S 0.000233368
*RES
1 *1813:X *270:16 12.26 
2 *270:16 *270:18 2.52 
3 *270:18 *270:30 31.23 
4 *270:30 *270:34 6.935 
5 *270:34 *1819:S 12 
6 *270:34 *270:47 12.09 
7 *270:47 *1818:S 6.12 
8 *270:47 *1821:S 16.765 
9 *270:30 *1816:S 1.96 
10 *270:18 *1814:S 1.6 
11 *270:16 *270:91 29.095 
12 *270:91 *270:105 13.83 
13 *270:105 *1820:S 28.545 
14 *270:105 *1817:S 1.6 
15 *270:91 *1815:S 13.94 
*END

*D_NET *271 0.0023258
*CONN
*I *1823:D I *D sky130_fd_sc_hd__and4bb_4
*I *1868:C I *D sky130_fd_sc_hd__nand4b_4
*I *1850:D I *D sky130_fd_sc_hd__nand4_4
*I *1885:D I *D sky130_fd_sc_hd__and4b_4
*I *1822:Y O *D sky130_fd_sc_hd__nor2_2
*CAP
1 *1823:D 0
2 *1868:C 0
3 *1850:D 0.000129179
4 *1885:D 0.000155803
5 *1822:Y 0
6 *271:19 0.000223329
7 *271:17 0.000204452
8 *271:4 0.000266105
9 *1850:D *277:86 7.89767e-05
10 *1850:D *411:43 0.00013994
11 *1850:D *450:50 3.12176e-05
12 *1850:D *450:61 8.40269e-05
13 *1885:D *1803:B 4.0843e-05
14 *1885:D *1885:B 0.000158066
15 *1885:D *1885:C 2.75229e-05
16 *1885:D *411:70 0.000342784
17 *271:17 *1711:A2 0
18 *271:17 *409:94 0.00016881
19 *271:17 *412:222 0
20 *271:17 *414:29 1.0183e-05
21 *271:19 *272:8 0
22 *271:19 *277:86 3.86529e-05
23 *271:19 *409:94 0.000168038
24 *271:19 *412:222 0
25 *1803:A *1885:D 4.66108e-05
26 *268:12 *1885:D 1.12578e-05
*RES
1 *1822:Y *271:4 1.6 
2 *271:4 *1885:D 5.86 
3 *271:4 *271:17 4.145 
4 *271:17 *271:19 2.4 
5 *271:19 *1850:D 6.735 
6 *271:19 *1868:C 3.6 
7 *271:17 *1823:D 3.6 
*END

*D_NET *272 0.0270222
*CONN
*I *1827:S I *D sky130_fd_sc_hd__mux2_1
*I *1831:S I *D sky130_fd_sc_hd__mux2_1
*I *1826:S I *D sky130_fd_sc_hd__mux2_1
*I *1830:S I *D sky130_fd_sc_hd__mux2_1
*I *1824:S I *D sky130_fd_sc_hd__mux2_1
*I *1828:S I *D sky130_fd_sc_hd__mux2_1
*I *1829:S I *D sky130_fd_sc_hd__mux2_1
*I *1825:S I *D sky130_fd_sc_hd__mux2_1
*I *1823:X O *D sky130_fd_sc_hd__and4bb_4
*CAP
1 *1827:S 2.08101e-05
2 *1831:S 0.000118559
3 *1826:S 0.0012148
4 *1830:S 9.44738e-05
5 *1824:S 0
6 *1828:S 0.000784129
7 *1829:S 0
8 *1825:S 0
9 *1823:X 7.22135e-05
10 *272:99 0.00160732
11 *272:84 0.00137814
12 *272:64 0.00148508
13 *272:35 0.00224451
14 *272:25 0.0029302
15 *272:14 0.00173821
16 *272:8 0.000795171
17 *1826:S *1634:S0 0
18 *1826:S *1736:A0 0
19 *1826:S *1736:S0 0
20 *1826:S *1738:S 0.000378975
21 *1826:S *1826:A0 8.37065e-05
22 *1826:S *2007:CLK 9.24127e-05
23 *1826:S *379:10 2.37234e-05
24 *1826:S *416:45 0
25 *1826:S *455:14 4.85494e-05
26 *1826:S *455:20 0
27 *1826:S *456:18 9.2741e-05
28 *1828:S *1641:A1 0.000116165
29 *1828:S *1874:A1 4.44927e-05
30 *1828:S *408:148 0.000314687
31 *1828:S *408:150 0.000204739
32 *1828:S *408:154 0.000321696
33 *1830:S *1830:A0 8.57024e-05
34 *1831:S *1831:A0 1.61831e-05
35 *1831:S *1831:A1 2.75229e-05
36 *272:8 *277:86 1.07797e-05
37 *272:8 *412:222 5.72091e-05
38 *272:14 *1702:B 0
39 *272:14 *1850:B 7.45794e-05
40 *272:14 *1868:B 0.00011852
41 *272:14 *275:16 0.000170535
42 *272:14 *277:86 0.000223432
43 *272:14 *411:33 8.08153e-06
44 *272:14 *412:222 7.21296e-06
45 *272:14 *450:61 5.23362e-05
46 *272:14 *452:46 8.49205e-05
47 *272:25 *1728:A0 5.56629e-05
48 *272:25 *1825:A0 0.000519105
49 *272:25 *1852:A1 0
50 *272:25 *1869:A1 0.000118513
51 *272:25 *1870:A1 5.98004e-06
52 *272:25 *2045:CLK 0.000260071
53 *272:25 *275:16 0
54 *272:25 *335:10 0.000179922
55 *272:25 *336:10 9.49203e-05
56 *272:25 *431:70 1.46828e-05
57 *272:25 *452:46 8.49205e-05
58 *272:35 *1874:A1 0.000253949
59 *272:35 *1886:A0 5.062e-06
60 *272:35 *278:102 1.61831e-05
61 *272:35 *278:110 0.000240767
62 *272:35 *279:10 6.45317e-05
63 *272:35 *335:10 0.000162955
64 *272:35 *451:29 2.66586e-05
65 *272:64 *1832:A_N 0.000630101
66 *272:64 *277:18 0.00127894
67 *272:64 *277:86 0.000257869
68 *272:64 *412:39 0.000342789
69 *272:84 *1744:S0 0.000128909
70 *272:84 *1827:A0 0.00010491
71 *272:84 *277:18 0.000423631
72 *272:84 *277:30 0.000495101
73 *272:84 *282:14 4.66826e-05
74 *272:84 *409:176 0
75 *272:84 *454:89 5.49126e-05
76 *272:99 *428:17 9.19502e-05
77 *272:99 *428:19 5.30144e-05
78 *272:99 *428:23 8.683e-05
79 *272:99 *428:66 5.30144e-05
80 *1643:A0 *1828:S 0
81 *1644:B1 *272:84 0.000355889
82 *1722:A0 *272:25 0
83 *1746:A0 *272:84 0.000122325
84 *1746:A1 *272:84 0
85 *1987:D *272:25 4.80285e-05
86 *1993:D *272:99 9.30717e-05
87 *2007:D *1826:S 0
88 *2023:D *1826:S 0.000291365
89 *2044:D *272:35 2.62239e-05
90 *2045:D *272:25 0
91 *2060:D *272:35 0
92 *2064:D *1826:S 0
93 *197:16 *272:84 4.88568e-05
94 *253:12 *1826:S 0.000577956
95 *253:12 *272:99 0.000890173
96 *269:103 *1830:S 0.000146275
97 *269:103 *272:84 0.00112697
98 *271:19 *272:8 0
*RES
1 *1823:X *272:8 5.235 
2 *272:8 *272:14 9.53 
3 *272:14 *1825:S 1.6 
4 *272:14 *272:25 31.58 
5 *272:25 *272:35 24.415 
6 *272:35 *1829:S 3.6 
7 *272:35 *1828:S 20.655 
8 *272:25 *1824:S 3.6 
9 *272:8 *272:64 16.94 
10 *272:64 *272:84 32.195 
11 *272:84 *1830:S 3.895 
12 *272:84 *272:99 12.305 
13 *272:99 *1826:S 28.62 
14 *272:99 *1831:S 5.43 
15 *272:64 *1827:S 1.96 
*END

*D_NET *273 0.0186442
*CONN
*I *1836:S I *D sky130_fd_sc_hd__mux2_1
*I *1838:S I *D sky130_fd_sc_hd__mux2_1
*I *1837:S I *D sky130_fd_sc_hd__mux2_1
*I *1839:S I *D sky130_fd_sc_hd__mux2_1
*I *1835:S I *D sky130_fd_sc_hd__mux2_1
*I *1840:S I *D sky130_fd_sc_hd__mux2_1
*I *1833:S I *D sky130_fd_sc_hd__mux2_1
*I *1834:S I *D sky130_fd_sc_hd__mux2_1
*I *1832:Y O *D sky130_fd_sc_hd__nand4b_4
*CAP
1 *1836:S 0
2 *1838:S 9.47268e-05
3 *1837:S 0
4 *1839:S 0.000852255
5 *1835:S 0.000368396
6 *1840:S 0.000148043
7 *1833:S 0.0005178
8 *1834:S 2.03941e-05
9 *1832:Y 0.000175599
10 *273:63 0.00122065
11 *273:54 0.00104832
12 *273:52 0.00143818
13 *273:46 0.000988391
14 *273:40 0.00121425
15 *273:12 0.000581042
16 *273:8 0.00107694
17 *1833:S *1833:A1 9.50342e-06
18 *1833:S *1834:A0 8.23457e-05
19 *1833:S *1842:S 0.000124679
20 *1833:S *278:94 0.000349881
21 *1833:S *278:102 9.50342e-06
22 *1833:S *407:427 3.85797e-05
23 *1833:S *407:439 3.69251e-05
24 *1833:S *431:8 2.05056e-05
25 *1833:S *431:12 2.16917e-05
26 *1833:S *452:46 0.000100139
27 *1833:S *452:68 0.00021441
28 *1834:S *1834:A0 4.82863e-05
29 *1835:S *1737:S1 0.000172527
30 *1835:S *1862:A0 0.000428197
31 *1835:S *1862:S 9.76522e-05
32 *1835:S *1888:S 0
33 *1835:S *361:10 7.06865e-05
34 *1835:S *453:51 1.0183e-05
35 *1835:S *453:90 7.26551e-05
36 *1838:S *1838:A0 0.000142312
37 *1838:S *1838:A1 2.11084e-05
38 *1839:S *1650:A0 6.28498e-05
39 *1839:S *1650:S1 0.000854062
40 *1839:S *1658:A2 0
41 *1839:S *1862:S 5.21545e-05
42 *1839:S *1866:A0 0.000360611
43 *1839:S *1866:S 0.000449448
44 *1839:S *427:10 2.15594e-05
45 *1839:S *427:21 6.34101e-06
46 *1839:S *427:94 0.000137578
47 *1839:S *453:90 0.00045526
48 *1839:S *457:85 0.000122797
49 *1840:S *1840:A0 4.77719e-05
50 *273:8 *1804:A 0.00018471
51 *273:8 *1841:C 0.000100536
52 *273:8 *407:265 0
53 *273:8 *451:115 0.000131882
54 *273:12 *407:265 0
55 *273:40 *1971:CLK 2.16833e-05
56 *273:40 *431:12 0.000886744
57 *273:46 *1744:S0 5.38986e-05
58 *273:46 *1808:A1 0.000179987
59 *273:46 *1863:S 1.82476e-05
60 *273:46 *276:61 9.29751e-06
61 *273:46 *386:14 0.000296088
62 *273:46 *407:285 6.81892e-05
63 *273:46 *408:216 0
64 *273:52 *1635:S 0.000290115
65 *273:52 *1738:S 3.66286e-05
66 *273:52 *1838:A0 0.000164033
67 *273:54 *1738:S 0.000352161
68 *273:54 *455:73 5.74791e-05
69 *1635:A0 *273:52 4.58166e-05
70 *1644:B1 *1838:S 0.000251577
71 *1644:B1 *273:46 0.000196406
72 *1644:B1 *273:52 8.65905e-05
73 *1723:B1 *1833:S 0
74 *2005:D *1835:S 9.95272e-05
75 *2038:D *1835:S 0
76 *2039:D *273:46 0.000141606
77 *176:14 *273:52 8.57024e-05
78 *269:8 *273:8 0.000247574
79 *269:8 *273:12 7.06865e-05
80 *269:77 *273:40 0.000179887
*RES
1 *1832:Y *273:8 9.315 
2 *273:8 *273:12 2.87 
3 *273:12 *1834:S 2.05 
4 *273:12 *1833:S 17.42 
5 *273:8 *273:40 14.465 
6 *273:40 *273:46 13.795 
7 *273:46 *273:52 10.575 
8 *273:52 *273:54 14.25 
9 *273:54 *1840:S 3.775 
10 *273:54 *273:63 2 
11 *273:63 *1835:S 14.16 
12 *273:63 *1839:S 24.8343 
13 *273:52 *1837:S 1.6 
14 *273:46 *1838:S 5.275 
15 *273:40 *1836:S 1.6 
*END

*D_NET *274 0.017919
*CONN
*I *1842:S I *D sky130_fd_sc_hd__mux2_1
*I *1843:S I *D sky130_fd_sc_hd__mux2_1
*I *1847:S I *D sky130_fd_sc_hd__mux2_1
*I *1846:S I *D sky130_fd_sc_hd__mux2_1
*I *1844:S I *D sky130_fd_sc_hd__mux2_1
*I *1848:S I *D sky130_fd_sc_hd__mux2_1
*I *1849:S I *D sky130_fd_sc_hd__mux2_1
*I *1845:S I *D sky130_fd_sc_hd__mux2_1
*I *1841:X O *D sky130_fd_sc_hd__and4b_4
*CAP
1 *1842:S 0.000543203
2 *1843:S 0.000178194
3 *1847:S 8.74184e-05
4 *1846:S 2.08101e-05
5 *1844:S 2.09808e-05
6 *1848:S 0.000641017
7 *1849:S 3.81386e-05
8 *1845:S 5.43937e-05
9 *1841:X 0.000215614
10 *274:106 0.000721397
11 *274:61 0.00165509
12 *274:55 0.0018114
13 *274:53 0.00190977
14 *274:31 0.0013493
15 *274:20 0.00144457
16 *274:10 0.00141839
17 *1842:S *278:102 0.000711004
18 *1842:S *407:439 0.00011852
19 *1842:S *430:67 6.12954e-05
20 *1842:S *451:75 5.39961e-05
21 *1842:S *451:86 0.000504193
22 *1842:S *451:101 0.000219699
23 *1843:S *1861:A0 0.000109931
24 *1843:S *1861:A1 8.23457e-05
25 *1843:S *276:35 0.000163199
26 *1843:S *376:10 0
27 *1845:S *1845:A1 7.35729e-05
28 *1847:S *456:52 2.05641e-05
29 *1848:S *1849:A0 0
30 *1848:S *381:10 0
31 *1848:S *427:66 0
32 *1849:S *1849:A0 2.0514e-05
33 *1849:S *1849:A1 4.99619e-05
34 *274:10 *2037:CLK 8.09021e-06
35 *274:10 *276:16 5.29131e-05
36 *274:10 *408:117 0.000359917
37 *274:10 *451:115 0.000585537
38 *274:20 *1845:A1 0.000204026
39 *274:20 *2037:CLK 1.22676e-05
40 *274:20 *278:94 0
41 *274:20 *407:439 4.11281e-05
42 *274:20 *451:115 0.000163012
43 *274:20 *452:89 9.81593e-05
44 *274:31 *455:104 0
45 *274:31 *456:52 2.46007e-05
46 *274:31 *456:63 3.26822e-05
47 *274:31 *456:84 3.2674e-05
48 *274:53 *1634:A2 2.41325e-05
49 *274:53 *1634:A3 0.000389619
50 *274:53 *1738:S 8.88038e-05
51 *274:53 *1846:A1 0.000161829
52 *274:53 *363:12 1.22773e-05
53 *274:53 *426:98 0.00011686
54 *274:53 *455:73 1.19928e-05
55 *274:53 *456:52 4.55949e-05
56 *274:55 *1844:A0 0.000264225
57 *274:55 *1846:A0 1.03423e-05
58 *274:55 *1846:A1 3.00381e-05
59 *274:55 *1862:A0 4.66826e-05
60 *274:55 *453:79 3.27443e-05
61 *274:55 *453:90 1.33293e-05
62 *274:61 *1844:A0 4.60123e-05
63 *274:61 *1849:A0 0
64 *274:61 *427:66 0
65 *1635:A1 *274:31 7.74981e-05
66 *1635:A1 *274:53 5.94456e-06
67 *1723:B1 *1842:S 2.79004e-05
68 *1809:S *274:53 2.76356e-05
69 *1811:S *1848:S 0
70 *1833:S *1842:S 0.000124679
71 *1976:D *1848:S 4.40899e-05
72 *1977:D *274:61 0
73 *2003:D *274:20 3.45679e-05
74 *2007:D *274:53 5.92835e-05
75 *2015:D *274:55 4.82863e-05
76 *2017:D *1848:S 0
77 *2018:D *274:61 0
78 *2037:D *274:10 0.000139238
79 *2038:D *274:55 4.82919e-05
80 *176:14 *274:31 6.55328e-05
81 *269:12 *274:20 8.09021e-06
82 *269:107 *1848:S 0
*RES
1 *1841:X *274:10 11.46 
2 *274:10 *274:20 22.22 
3 *274:20 *1845:S 2.74 
4 *274:20 *274:31 6.3125 
5 *274:31 *274:53 21.9375 
6 *274:53 *274:55 12.87 
7 *274:55 *274:61 16.835 
8 *274:61 *1849:S 4.395 
9 *274:61 *1848:S 14.16 
10 *274:55 *1844:S 1.96 
11 *274:53 *1846:S 1.96 
12 *274:31 *1847:S 4.6275 
13 *274:10 *274:106 2 
14 *274:106 *1843:S 5.17 
15 *274:106 *1842:S 20.105 
*END

*D_NET *275 0.0293371
*CONN
*I *1854:S I *D sky130_fd_sc_hd__mux2_1
*I *1857:S I *D sky130_fd_sc_hd__mux2_1
*I *1858:S I *D sky130_fd_sc_hd__mux2_1
*I *1852:S I *D sky130_fd_sc_hd__mux2_1
*I *1851:S I *D sky130_fd_sc_hd__mux2_1
*I *1855:S I *D sky130_fd_sc_hd__mux2_1
*I *1853:S I *D sky130_fd_sc_hd__mux2_1
*I *1856:S I *D sky130_fd_sc_hd__mux2_1
*I *1850:Y O *D sky130_fd_sc_hd__nand4_4
*CAP
1 *1854:S 0.000146457
2 *1857:S 0.00012505
3 *1858:S 0.000571286
4 *1852:S 4.91035e-05
5 *1851:S 2.08101e-05
6 *1855:S 8.85167e-05
7 *1853:S 0.00107856
8 *1856:S 0.000145622
9 *1850:Y 8.94633e-05
10 *275:121 0.00166931
11 *275:111 0.00295812
12 *275:57 0.002225
13 *275:44 0.0017982
14 *275:34 0.00155967
15 *275:16 0.00139426
16 *275:6 0.00232911
17 *1852:S *1852:A0 5.83121e-06
18 *1853:S *1633:A2 3.1562e-06
19 *1853:S *1736:A2 4.66108e-05
20 *1853:S *1736:A3 4.65515e-05
21 *1853:S *1888:A0 2.92496e-05
22 *1853:S *2064:CLK 0.000115146
23 *1853:S *345:8 0.000206123
24 *1853:S *347:6 1.64405e-05
25 *1854:S *1854:A1 0.000120186
26 *1854:S *454:34 0
27 *1855:S *1736:S0 4.9968e-05
28 *1855:S *1736:S1 4.66108e-05
29 *1855:S *1855:A1 4.66108e-05
30 *1855:S *1890:A0 0.000121575
31 *1855:S *355:10 0.000227536
32 *1855:S *455:20 0
33 *1856:S *1856:A1 8.77898e-05
34 *1856:S *1991:CLK 6.28765e-05
35 *1856:S *348:10 3.86529e-05
36 *1857:S *1830:A0 1.07797e-05
37 *1857:S *1857:A1 4.99619e-05
38 *1857:S *1892:A0 7.23602e-05
39 *1857:S *349:8 6.75724e-05
40 *1857:S *457:50 3.26735e-05
41 *1858:S *1657:A3 0.000103176
42 *1858:S *1830:A0 0.000122685
43 *1858:S *1831:A1 2.75229e-05
44 *1858:S *1858:A1 0.000183043
45 *1858:S *1871:S 9.11819e-05
46 *1858:S *1892:S 6.67495e-05
47 *1858:S *2080:A 0.000130065
48 *1858:S *276:61 0
49 *1858:S *278:41 5.32371e-05
50 *1858:S *416:22 3.9065e-05
51 *1858:S *436:92 0.000709549
52 *1858:S *457:50 2.24423e-05
53 *1858:S *457:52 8.08153e-06
54 *275:6 *411:43 1.91597e-05
55 *275:6 *411:244 4.47209e-05
56 *275:16 *1728:A2 0.000114492
57 *275:16 *1852:A1 0.000318466
58 *275:16 *1870:A0 0.000113972
59 *275:16 *1887:A0 0.000183731
60 *275:16 *1995:CLK 0
61 *275:16 *2045:CLK 0
62 *275:16 *277:86 5.39718e-05
63 *275:16 *277:92 5.58195e-05
64 *275:16 *352:10 6.66972e-05
65 *275:16 *408:134 0.000159857
66 *275:16 *411:33 0.000139933
67 *275:34 *1641:S0 4.35348e-05
68 *275:34 *1720:S0 4.41506e-05
69 *275:34 *1720:S1 0
70 *275:34 *1851:A1 0.000267846
71 *275:34 *1852:A0 0.00013688
72 *275:34 *1860:S 0
73 *275:34 *1887:S 0.000161529
74 *275:34 *277:102 0.000161118
75 *275:34 *408:142 0.000514398
76 *275:34 *408:146 0.000655925
77 *275:34 *409:98 0
78 *275:34 *430:14 0
79 *275:34 *451:66 0
80 *275:44 *1641:A2 0.000112044
81 *275:44 *1641:A3 0
82 *275:44 *1641:S0 0.000529504
83 *275:44 *1991:CLK 2.59981e-05
84 *275:44 *348:10 0.000117657
85 *275:57 *1633:A2 6.3124e-06
86 *275:57 *1991:CLK 6.58674e-05
87 *275:57 *2024:CLK 0.000152575
88 *275:57 *356:6 2.86265e-06
89 *275:111 *1841:C 0.000234685
90 *275:111 *1889:A0 0
91 *275:111 *277:30 8.53113e-06
92 *275:111 *278:22 0.000482158
93 *275:111 *411:33 9.53428e-06
94 *275:111 *411:43 0.000274659
95 *275:111 *450:39 0.00010978
96 *275:111 *450:50 0.000478316
97 *275:111 *450:61 1.46828e-05
98 *275:111 *454:34 0
99 *275:121 *1889:A0 0.000161529
100 *275:121 *1892:A0 4.82919e-05
101 *275:121 *1892:S 3.64998e-06
102 *275:121 *2063:CLK 0.000349598
103 *275:121 *277:30 0.000164981
104 *275:121 *285:8 0.00015639
105 *1643:A0 *275:44 0.000205372
106 *1738:A0 *1853:S 4.43871e-06
107 *1841:D *275:111 0.00030448
108 *1990:D *275:57 0.000360142
109 *1992:D *275:121 7.82635e-05
110 *2019:D *275:34 4.92062e-05
111 *2024:D *275:57 0.000271489
112 *2036:D *275:34 0.00047128
113 *2044:D *275:34 0.000114492
114 *2046:D *1853:S 0.000275553
115 *2049:D *1856:S 0
116 *2049:D *275:57 0.000124151
117 *2063:D *275:121 0.000128642
118 *2064:D *1853:S 0.000542291
119 *2066:D *1857:S 0
120 *176:14 *1854:S 9.76522e-05
121 *176:14 *275:111 6.36578e-05
122 *272:14 *275:16 0.000170535
123 *272:25 *275:16 0
*RES
1 *1850:Y *275:6 2.74 
2 *275:6 *275:16 16.39 
3 *275:16 *275:34 28.045 
4 *275:34 *275:44 15.92 
5 *275:44 *1856:S 7.02 
6 *275:44 *275:57 15.905 
7 *275:57 *1853:S 21.23 
8 *275:57 *1855:S 8.705 
9 *275:34 *1851:S 1.96 
10 *275:16 *1852:S 2.395 
11 *275:6 *275:111 29.84 
12 *275:111 *275:121 19.75 
13 *275:121 *1858:S 18.15 
14 *275:121 *1857:S 6.39 
15 *275:111 *1854:S 7.02 
*END

*D_NET *276 0.021223
*CONN
*I *1860:S I *D sky130_fd_sc_hd__mux2_1
*I *1865:S I *D sky130_fd_sc_hd__mux2_1
*I *1864:S I *D sky130_fd_sc_hd__mux2_1
*I *1863:S I *D sky130_fd_sc_hd__mux2_1
*I *1867:S I *D sky130_fd_sc_hd__mux2_1
*I *1866:S I *D sky130_fd_sc_hd__mux2_1
*I *1862:S I *D sky130_fd_sc_hd__mux2_1
*I *1861:S I *D sky130_fd_sc_hd__mux2_1
*I *1859:X O *D sky130_fd_sc_hd__and4bb_4
*CAP
1 *1860:S 0.000694388
2 *1865:S 0
3 *1864:S 0.00103416
4 *1863:S 0.000272147
5 *1867:S 0
6 *1866:S 0.000410299
7 *1862:S 0.000156685
8 *1861:S 2.64372e-05
9 *1859:X 0.000427876
10 *276:117 0.00158685
11 *276:67 0.000673318
12 *276:61 0.00210615
13 *276:39 0.00258424
14 *276:35 0.00132849
15 *276:22 0.00078011
16 *276:16 0.00141241
17 *1860:S *1728:S0 0.000345347
18 *1860:S *2037:CLK 2.49909e-05
19 *1860:S *407:427 2.37023e-05
20 *1860:S *408:142 0
21 *1860:S *409:98 0.000464203
22 *1861:S *1729:A2 5.16348e-05
23 *1861:S *1861:A0 0
24 *1862:S *1737:S0 0
25 *1862:S *1840:A0 5.54475e-05
26 *1862:S *1844:A0 1.70935e-05
27 *1862:S *1862:A0 3.25831e-05
28 *1863:S *1863:A0 5.38551e-05
29 *1863:S *408:216 0.000116853
30 *1864:S *1865:A0 1.71013e-05
31 *1864:S *408:207 0
32 *1866:S *1840:A0 6.94735e-06
33 *1866:S *1866:A1 0.000156754
34 *1866:S *1867:A0 7.23533e-05
35 *1866:S *427:10 0.000163019
36 *1866:S *427:94 3.57924e-05
37 *1866:S *436:133 0.000126704
38 *1866:S *453:90 0
39 *276:16 *2037:CLK 5.23362e-05
40 *276:16 *278:94 0.000516551
41 *276:16 *408:117 0.000926387
42 *276:16 *450:14 2.16917e-05
43 *276:16 *452:32 3.98782e-05
44 *276:22 *1729:A0 0
45 *276:22 *1729:A2 7.06865e-05
46 *276:22 *1861:A0 0
47 *276:22 *2037:CLK 5.83121e-06
48 *276:22 *407:427 1.55065e-05
49 *276:35 *1861:A0 6.20088e-05
50 *276:35 *376:10 0.000174147
51 *276:35 *429:99 4.43682e-05
52 *276:39 *2039:CLK 1.56428e-05
53 *276:39 *429:99 9.65676e-05
54 *276:39 *429:101 6.42013e-05
55 *276:61 *1888:S 0
56 *276:61 *1973:CLK 8.09157e-05
57 *276:61 *1993:CLK 2.11084e-05
58 *276:61 *2039:CLK 4.06489e-05
59 *276:61 *386:14 7.53268e-05
60 *276:61 *407:311 0.000310885
61 *276:61 *408:216 9.61344e-05
62 *276:61 *436:92 3.68682e-05
63 *276:61 *436:100 0.000386221
64 *276:67 *436:100 3.92496e-05
65 *276:67 *436:104 8.65961e-05
66 *276:117 *1642:A0 9.50885e-05
67 *276:117 *1642:A1 0.000118496
68 *276:117 *1642:A2 0
69 *276:117 *1838:A1 3.86529e-05
70 *276:117 *1861:A0 0
71 *276:117 *1865:A0 6.28687e-05
72 *276:117 *2004:CLK 0
73 *276:117 *408:207 0
74 *276:117 *408:216 0
75 *276:117 *429:84 1.01661e-05
76 *276:117 *429:99 0.000139927
77 *1643:A0 *1864:S 0
78 *1643:A1 *276:117 0.000386052
79 *1835:S *1862:S 9.76522e-05
80 *1839:S *1862:S 5.21545e-05
81 *1839:S *1866:S 0.000449448
82 *1843:S *276:35 0.000163199
83 *1858:S *276:61 0
84 *1973:D *276:61 0.000363252
85 *1993:D *276:61 7.03046e-05
86 *2012:D *276:35 2.10134e-05
87 *2012:D *276:61 0
88 *2026:D *276:61 9.54399e-05
89 *2037:D *276:16 7.5416e-05
90 *2037:D *276:22 2.50284e-05
91 *2039:D *1863:S 3.50033e-05
92 *2039:D *276:61 8.81733e-05
93 *2041:D *276:117 0
94 *268:27 *276:16 0.000217555
95 *273:46 *1863:S 1.82476e-05
96 *273:46 *276:61 9.29751e-06
97 *274:10 *276:16 5.29131e-05
98 *275:34 *1860:S 0
*RES
1 *1859:X *276:16 19.805 
2 *276:16 *276:22 5.39 
3 *276:22 *1861:S 4.215 
4 *276:22 *276:35 8.315 
5 *276:35 *276:39 5.9 
6 *276:39 *276:61 34.65 
7 *276:61 *276:67 3.845 
8 *276:67 *1862:S 7.53 
9 *276:67 *1866:S 14.16 
10 *276:61 *1867:S 1.6 
11 *276:39 *1863:S 8.67 
12 *276:35 *276:117 14.855 
13 *276:117 *1864:S 18.87 
14 *276:117 *1865:S 3.6 
15 *276:16 *1860:S 16.685 
*END

*D_NET *277 0.026805
*CONN
*I *1870:S I *D sky130_fd_sc_hd__mux2_1
*I *1869:S I *D sky130_fd_sc_hd__mux2_1
*I *1873:S I *D sky130_fd_sc_hd__mux2_1
*I *1874:S I *D sky130_fd_sc_hd__mux2_1
*I *1872:S I *D sky130_fd_sc_hd__mux2_1
*I *1875:S I *D sky130_fd_sc_hd__mux2_1
*I *1876:S I *D sky130_fd_sc_hd__mux2_1
*I *1871:S I *D sky130_fd_sc_hd__mux2_1
*I *1868:Y O *D sky130_fd_sc_hd__nand4b_4
*CAP
1 *1870:S 0.000305986
2 *1869:S 0
3 *1873:S 0.000615065
4 *1874:S 0
5 *1872:S 4.29623e-05
6 *1875:S 0.000331155
7 *1876:S 0
8 *1871:S 0.00114906
9 *1868:Y 0
10 *277:102 0.00146451
11 *277:92 0.00159853
12 *277:86 0.00158287
13 *277:38 0.00141073
14 *277:30 0.0019652
15 *277:18 0.00281693
16 *277:4 0.0019294
17 *1870:S *1870:A0 0.000138808
18 *1870:S *1870:A1 1.1392e-05
19 *1870:S *408:134 5.83121e-06
20 *1871:S *1657:A0 0.00020279
21 *1871:S *1657:A3 8.73147e-06
22 *1871:S *1831:A0 7.23602e-05
23 *1871:S *1876:A1 0.00011852
24 *1871:S *2080:A 0.000185405
25 *1871:S *407:295 0.000141539
26 *1871:S *407:311 8.80869e-05
27 *1871:S *416:45 0
28 *1872:S *454:89 1.3857e-05
29 *1873:S *1856:A1 8.65961e-05
30 *1873:S *1873:A1 5.05437e-05
31 *1873:S *1874:A0 1.4399e-05
32 *1873:S *1874:A1 1.47256e-05
33 *1873:S *1890:S 0.000657701
34 *1873:S *456:18 0.000223831
35 *1873:S *456:195 9.23898e-05
36 *1873:S *456:202 0.000196942
37 *1875:S *1649:A2 3.05373e-05
38 *1875:S *1875:A0 0.0001249
39 *1875:S *1875:A1 2.30292e-05
40 *1875:S *408:249 0
41 *1875:S *436:77 0.000274308
42 *277:18 *1872:A1 4.66826e-05
43 *277:18 *282:14 0.00011852
44 *277:18 *454:89 2.8585e-06
45 *277:30 *1889:A0 2.20732e-05
46 *277:30 *2063:CLK 0.000139487
47 *277:30 *278:22 8.7996e-05
48 *277:30 *454:89 1.28946e-05
49 *277:38 *407:373 2.67398e-05
50 *277:38 *408:249 0
51 *277:38 *416:39 0.000122325
52 *277:38 *436:77 0.000128451
53 *277:86 *1868:B 0.000110683
54 *277:86 *409:94 0
55 *277:86 *409:98 0.000278134
56 *277:86 *411:43 1.44259e-05
57 *277:86 *450:61 5.4003e-05
58 *277:92 *1720:S1 5.83121e-06
59 *277:92 *1728:A2 5.65627e-05
60 *277:92 *1869:A1 4.29107e-05
61 *277:92 *1887:A0 0.00010131
62 *277:92 *408:134 0.000164679
63 *277:92 *409:98 2.66852e-05
64 *277:92 *430:8 0.000198204
65 *277:92 *430:14 0.000319121
66 *277:92 *430:67 0.000162192
67 *277:102 *1720:S1 0.000131791
68 *277:102 *1869:A0 0.000196376
69 *277:102 *1869:A1 3.45588e-05
70 *277:102 *1874:A1 5.83121e-06
71 *277:102 *1886:A0 0.000181376
72 *277:102 *1986:CLK 0.000185405
73 *277:102 *408:148 5.05521e-05
74 *277:102 *430:32 0.000152814
75 *277:102 *451:18 0
76 *277:102 *451:29 1.07797e-05
77 *277:102 *451:44 9.02726e-05
78 *277:102 *451:55 6.36578e-05
79 *277:102 *451:66 1.71013e-05
80 *1651:A1 *1875:S 0.000103192
81 *1722:A0 *277:92 0.000366786
82 *1746:A0 *277:18 8.53113e-06
83 *1746:A1 *277:18 0.000337229
84 *1850:D *277:86 7.89767e-05
85 *1858:S *1871:S 9.11819e-05
86 *1974:D *1871:S 0
87 *1992:D *277:30 3.10407e-05
88 *2015:D *1871:S 0.000114483
89 *2020:D *277:92 0.000531088
90 *2024:D *1873:S 3.00381e-05
91 *2044:D *277:102 9.87877e-05
92 *2047:D *277:18 0.000148939
93 *2049:D *1873:S 4.99619e-05
94 *2050:D *1875:S 9.54469e-05
95 *2063:D *277:30 5.2325e-05
96 *176:14 *277:30 2.16389e-05
97 *253:12 *1875:S 0
98 *262:81 *1875:S 0.00011964
99 *269:103 *1872:S 0
100 *271:19 *277:86 3.86529e-05
101 *272:8 *277:86 1.07797e-05
102 *272:14 *277:86 0.000223432
103 *272:64 *277:18 0.00127894
104 *272:64 *277:86 0.000257869
105 *272:84 *277:18 0.000423631
106 *272:84 *277:30 0.000495101
107 *275:16 *277:86 5.39718e-05
108 *275:16 *277:92 5.58195e-05
109 *275:34 *277:102 0.000161118
110 *275:111 *277:30 8.53113e-06
111 *275:121 *277:30 0.000164981
*RES
1 *1868:Y *277:4 1.6 
2 *277:4 *277:18 25.7612 
3 *277:18 *277:30 23.7337 
4 *277:30 *277:38 6.92 
5 *277:38 *1871:S 27.89 
6 *277:38 *1876:S 1.6 
7 *277:30 *1875:S 12.42 
8 *277:18 *1872:S 2.67625 
9 *277:4 *277:86 13.94 
10 *277:86 *277:92 23.9 
11 *277:92 *277:102 22.48 
12 *277:102 *1874:S 1.6 
13 *277:102 *1873:S 17.02 
14 *277:92 *1869:S 1.6 
15 *277:86 *1870:S 8.31 
*END

*D_NET *278 0.0264226
*CONN
*I *1887:S I *D sky130_fd_sc_hd__mux2_1
*I *1886:S I *D sky130_fd_sc_hd__mux2_1
*I *1891:S I *D sky130_fd_sc_hd__mux2_1
*I *1890:S I *D sky130_fd_sc_hd__mux2_1
*I *1892:S I *D sky130_fd_sc_hd__mux2_1
*I *1893:S I *D sky130_fd_sc_hd__mux2_1
*I *1888:S I *D sky130_fd_sc_hd__mux2_1
*I *1889:S I *D sky130_fd_sc_hd__mux2_1
*I *1885:X O *D sky130_fd_sc_hd__and4b_4
*CAP
1 *1887:S 0.000175169
2 *1886:S 2.08101e-05
3 *1891:S 0.000151405
4 *1890:S 0.000606194
5 *1892:S 0.000113557
6 *1893:S 3.85037e-05
7 *1888:S 0.00105769
8 *1889:S 1.87829e-05
9 *1885:X 0.000163326
10 *278:110 0.00159256
11 *278:102 0.001498
12 *278:94 0.00154511
13 *278:41 0.00118062
14 *278:37 0.0016731
15 *278:22 0.00268921
16 *278:12 0.00208634
17 *1887:S *1852:A0 2.05056e-05
18 *1887:S *452:89 0.000209615
19 *1888:S *1657:A1 0
20 *1888:S *1737:S1 0.000297857
21 *1888:S *1866:A1 0.000163204
22 *1888:S *1893:A0 5.83121e-06
23 *1888:S *419:12 0.000141606
24 *1888:S *419:100 0.000179922
25 *1888:S *419:113 0.000175894
26 *1888:S *436:92 0
27 *1888:S *453:51 0
28 *1888:S *453:90 0
29 *1889:S *1889:A0 7.96104e-06
30 *1890:S *1856:A1 0
31 *1890:S *1873:A0 0.000237301
32 *1890:S *1873:A1 3.23663e-05
33 *1890:S *456:18 9.27255e-06
34 *1890:S *456:22 0.000187766
35 *1891:S *1891:A0 1.03323e-05
36 *1891:S *1891:A1 4.82919e-05
37 *1891:S *429:46 8.6099e-05
38 *1891:S *456:22 0.00028589
39 *1892:S *1892:A0 7.67415e-06
40 *1892:S *1892:A1 4.82919e-05
41 *1892:S *457:52 0.000119862
42 *1893:S *1893:A0 4.80285e-05
43 *278:12 *1885:C 0.000122337
44 *278:12 *411:70 2.16917e-05
45 *278:12 *411:74 0.000120655
46 *278:12 *450:18 0.000242085
47 *278:12 *450:22 9.54399e-05
48 *278:12 *450:96 0.000110683
49 *278:12 *450:107 2.14129e-05
50 *278:12 *451:115 0.000471287
51 *278:22 *1744:A2 0.000337046
52 *278:22 *1841:C 7.47548e-05
53 *278:22 *1889:A0 0.000211424
54 *278:22 *282:14 0.000164903
55 *278:41 *1866:A1 0.00013994
56 *278:41 *1893:A0 2.86623e-05
57 *278:41 *436:92 0
58 *278:41 *453:90 0
59 *278:41 *457:52 6.55429e-05
60 *278:94 *1804:B 8.49205e-05
61 *278:94 *1841:C 1.34503e-05
62 *278:94 *2037:CLK 0.000159957
63 *278:94 *407:439 0.00011379
64 *278:94 *450:39 2.39856e-05
65 *278:94 *452:32 0.000356237
66 *278:94 *452:46 5.16348e-05
67 *278:94 *452:89 0.000122337
68 *278:102 *1720:S0 1.93834e-05
69 *278:102 *1833:A1 0.000124532
70 *278:102 *407:439 0
71 *278:102 *407:523 0.000951421
72 *278:102 *451:18 1.52184e-05
73 *278:102 *451:29 9.77268e-05
74 *278:102 *451:44 0.000146496
75 *278:102 *451:55 6.10941e-05
76 *278:102 *451:66 0.000201711
77 *278:102 *451:75 9.13384e-05
78 *278:110 *1886:A0 2.16833e-05
79 *278:110 *284:10 5.05437e-05
80 *278:110 *451:29 4.82919e-05
81 *1738:A0 *1888:S 0.000114838
82 *1738:A1 *1888:S 7.23533e-05
83 *1833:S *278:94 0.000349881
84 *1833:S *278:102 9.50342e-06
85 *1835:S *1888:S 0
86 *1842:S *278:102 0.000711004
87 *1858:S *1892:S 6.67495e-05
88 *1858:S *278:41 5.32371e-05
89 *1873:S *1890:S 0.000657701
90 *1989:D *278:22 1.54049e-05
91 *1991:D *278:110 0.000242666
92 *2015:D *1888:S 0
93 *2024:D *1890:S 0.000164679
94 *2024:D *1891:S 0.000137578
95 *2026:D *1888:S 0
96 *2038:D *1888:S 0.000238277
97 *2060:D *278:102 0
98 *2067:D *1888:S 0.000162325
99 *176:14 *278:22 0
100 *272:35 *278:102 1.61831e-05
101 *272:35 *278:110 0.000240767
102 *274:20 *278:94 0
103 *275:34 *1887:S 0.000161529
104 *275:111 *278:22 0.000482158
105 *275:121 *1892:S 3.64998e-06
106 *276:16 *278:94 0.000516551
107 *276:61 *1888:S 0
108 *277:30 *278:22 8.7996e-05
*RES
1 *1885:X *278:12 12.545 
2 *278:12 *278:22 22.4375 
3 *278:22 *1889:S 3.8325 
4 *278:22 *278:37 3.60173 
5 *278:37 *278:41 4.5275 
6 *278:41 *1888:S 29.72 
7 *278:41 *1893:S 2.395 
8 *278:37 *1892:S 6.2625 
9 *278:12 *278:94 21.295 
10 *278:94 *278:102 24.7 
11 *278:102 *278:110 16.715 
12 *278:110 *1890:S 16.56 
13 *278:110 *1891:S 8.175 
14 *278:102 *1886:S 1.96 
15 *278:94 *1887:S 5.5 
*END

*D_NET *279 0.00123177
*CONN
*I *1720:A0 I *D sky130_fd_sc_hd__mux4_1
*I *1824:A0 I *D sky130_fd_sc_hd__mux2_1
*I *1986:Q O *D sky130_fd_sc_hd__dfxtp_1
*CAP
1 *1720:A0 0.000143379
2 *1824:A0 0
3 *1986:Q 0.000286452
4 *279:10 0.000429831
5 *1720:A0 *335:10 0.000231564
6 *279:10 *335:10 7.23602e-05
7 *1722:A0 *1720:A0 0
8 *1986:D *279:10 3.64998e-06
9 *272:35 *279:10 6.45317e-05
*RES
1 *1986:Q *279:10 7.995 
2 *279:10 *1824:A0 3.6 
3 *279:10 *1720:A0 6.705 
*END

*D_NET *280 0.00156874
*CONN
*I *1825:A0 I *D sky130_fd_sc_hd__mux2_1
*I *1728:A0 I *D sky130_fd_sc_hd__mux4_1
*I *1987:Q O *D sky130_fd_sc_hd__dfxtp_1
*CAP
1 *1825:A0 0.000228038
2 *1728:A0 1.17264e-05
3 *1987:Q 0.000110003
4 *280:8 0.000349767
5 *1728:A0 *1870:A1 3.05295e-05
6 *1825:A0 *1870:A1 3.67779e-05
7 *1825:A0 *1987:CLK 0
8 *1825:A0 *2045:CLK 7.21296e-06
9 *1825:A0 *2085:A 4.47209e-05
10 *1825:A0 *431:70 0.000163199
11 *1825:A0 *432:10 0
12 *1987:D *1825:A0 1.19928e-05
13 *272:25 *1728:A0 5.56629e-05
14 *272:25 *1825:A0 0.000519105
*RES
1 *1987:Q *280:8 4.74 
2 *280:8 *1728:A0 4.215 
3 *280:8 *1825:A0 9.795 
*END

*D_NET *281 0.00114528
*CONN
*I *1736:A0 I *D sky130_fd_sc_hd__mux4_1
*I *1826:A0 I *D sky130_fd_sc_hd__mux2_1
*I *1988:Q O *D sky130_fd_sc_hd__dfxtp_1
*CAP
1 *1736:A0 0.000225056
2 *1826:A0 0.000209012
3 *1988:Q 0
4 *281:6 0.000434067
5 *1736:A0 *337:10 0
6 *1826:A0 *1826:A1 4.99619e-05
7 *1826:A0 *455:14 6.77501e-05
8 *1826:A0 *456:18 2.7441e-05
9 *1826:S *1736:A0 0
10 *1826:S *1826:A0 8.37065e-05
11 *1988:D *1826:A0 0
12 *2113:A *1826:A0 4.82863e-05
*RES
1 *1988:Q *281:6 3.6 
2 *281:6 *1826:A0 7.995 
3 *281:6 *1736:A0 7.02 
*END

*D_NET *282 0.00175208
*CONN
*I *1744:A0 I *D sky130_fd_sc_hd__mux4_1
*I *1827:A0 I *D sky130_fd_sc_hd__mux2_1
*I *1989:Q O *D sky130_fd_sc_hd__dfxtp_1
*CAP
1 *1744:A0 0
2 *1827:A0 0.000131857
3 *1989:Q 0.000365911
4 *282:14 0.000497769
5 *282:14 *1744:A2 8.40213e-05
6 *1989:D *1827:A0 0.000120655
7 *2047:D *282:14 0.000116853
8 *272:84 *1827:A0 0.00010491
9 *272:84 *282:14 4.66826e-05
10 *277:18 *282:14 0.00011852
11 *278:22 *282:14 0.000164903
*RES
1 *1989:Q *282:14 11.33 
2 *282:14 *1827:A0 4.48 
3 *282:14 *1744:A0 1.6 
*END

*D_NET *283 0.000642686
*CONN
*I *1828:A0 I *D sky130_fd_sc_hd__mux2_1
*I *1633:A0 I *D sky130_fd_sc_hd__mux4_1
*I *1990:Q O *D sky130_fd_sc_hd__dfxtp_1
*CAP
1 *1828:A0 9.64361e-05
2 *1633:A0 2.2266e-05
3 *1990:Q 9.93365e-05
4 *283:10 0.000218039
5 *1633:A0 *1633:A1 4.82919e-05
6 *1828:A0 *1633:A1 2.14129e-05
7 *283:10 *1633:A1 0.00011852
8 *283:10 *2024:CLK 1.83847e-05
9 *1990:D *1828:A0 0
10 *2065:D *283:10 0
*RES
1 *1990:Q *283:10 5.43 
2 *283:10 *1633:A0 4.05 
3 *283:10 *1828:A0 5.235 
*END

*D_NET *284 0.000731517
*CONN
*I *1641:A0 I *D sky130_fd_sc_hd__mux4_1
*I *1829:A0 I *D sky130_fd_sc_hd__mux2_1
*I *1991:Q O *D sky130_fd_sc_hd__dfxtp_1
*CAP
1 *1641:A0 0.000103868
2 *1829:A0 0
3 *1991:Q 0.000106251
4 *284:10 0.000210119
5 *1641:A0 *1641:A1 5.84456e-05
6 *1641:A0 *1874:A1 4.39656e-05
7 *284:10 *1829:A1 9.54399e-05
8 *284:10 *1874:A1 6.28843e-05
9 *1643:A0 *1641:A0 0
10 *278:110 *284:10 5.05437e-05
*RES
1 *1991:Q *284:10 5.775 
2 *284:10 *1829:A0 3.6 
3 *284:10 *1641:A0 5.745 
*END

*D_NET *285 0.0021425
*CONN
*I *1649:A0 I *D sky130_fd_sc_hd__mux4_1
*I *1830:A0 I *D sky130_fd_sc_hd__mux2_1
*I *1992:Q O *D sky130_fd_sc_hd__dfxtp_1
*CAP
1 *1649:A0 4.09561e-05
2 *1830:A0 0.000226134
3 *1992:Q 0.000117225
4 *285:8 0.000384316
5 *1649:A0 *1892:A0 6.21553e-05
6 *1649:A0 *349:8 5.4003e-05
7 *1649:A0 *357:10 6.28765e-05
8 *1830:A0 *1830:A1 0.000459366
9 *1830:A0 *1892:A0 8.53113e-06
10 *1830:A0 *357:10 0.00010131
11 *1830:A0 *416:22 2.17782e-05
12 *1830:S *1830:A0 8.57024e-05
13 *1857:S *1830:A0 1.07797e-05
14 *1858:S *1830:A0 0.000122685
15 *269:103 *1830:A0 0.00022829
16 *275:121 *285:8 0.00015639
*RES
1 *1992:Q *285:8 5.085 
2 *285:8 *1830:A0 11.1 
3 *285:8 *1649:A0 4.98 
*END

*D_NET *286 0.0018328
*CONN
*I *1657:A0 I *D sky130_fd_sc_hd__mux4_1
*I *1831:A0 I *D sky130_fd_sc_hd__mux2_1
*I *1993:Q O *D sky130_fd_sc_hd__dfxtp_1
*CAP
1 *1657:A0 0.000114046
2 *1831:A0 0.000278998
3 *1993:Q 0
4 *286:6 0.000393044
5 *1657:A0 *1657:A3 0.000138718
6 *1657:A0 *1858:A1 0.000110683
7 *1831:A0 *1831:A1 0.000351268
8 *1831:A0 *1858:A1 7.23602e-05
9 *1659:A1 *1657:A0 8.23457e-05
10 *1831:S *1831:A0 1.61831e-05
11 *1871:S *1657:A0 0.00020279
12 *1871:S *1831:A0 7.23602e-05
*RES
1 *1993:Q *286:6 3.6 
2 *286:6 *1831:A0 8.025 
3 *286:6 *1657:A0 7.155 
*END

*D_NET *287 0.00224549
*CONN
*I *1716:A2 I *D sky130_fd_sc_hd__mux4_1
*I *1795:A0 I *D sky130_fd_sc_hd__mux2_1
*I *1962:Q O *D sky130_fd_sc_hd__dfxtp_1
*CAP
1 *1716:A2 0.000567776
2 *1795:A0 0.000286636
3 *1962:Q 0
4 *287:4 0.000854413
5 *1716:A2 *1639:S0 4.11668e-05
6 *1716:A2 *1716:A0 5.05437e-05
7 *1716:A2 *1716:A3 4.41506e-05
8 *1716:A2 *1716:S0 8.40269e-05
9 *1716:A2 *407:248 1.1963e-05
10 *1716:A2 *411:111 5.23362e-05
11 *1716:A2 *416:96 5.23362e-05
12 *1795:A0 *1639:S0 2.68506e-05
13 *1747:B1 *1795:A0 0.000130668
14 *267:14 *1795:A0 0
15 *267:56 *1795:A0 4.26188e-05
*RES
1 *1962:Q *287:4 1.6 
2 *287:4 *1795:A0 10.34 
3 *287:4 *1716:A2 12.7288 
*END

*D_NET *288 0.00207107
*CONN
*I *1796:A0 I *D sky130_fd_sc_hd__mux2_1
*I *1726:A2 I *D sky130_fd_sc_hd__mux4_1
*I *1963:Q O *D sky130_fd_sc_hd__dfxtp_1
*CAP
1 *1796:A0 0.00024321
2 *1726:A2 0.000395205
3 *1963:Q 0
4 *288:6 0.000638415
5 *1726:A2 *1895:CLK 0
6 *1726:A2 *408:30 1.60083e-05
7 *1796:A0 *425:84 0
8 *1727:A2 *1726:A2 0.000128346
9 *1796:S *1796:A0 0.0001249
10 *1963:D *1796:A0 0.000139238
11 *266:35 *1726:A2 0.000385745
*RES
1 *1963:Q *288:6 3.6 
2 *288:6 *1726:A2 12.4125 
3 *288:6 *1796:A0 8.1 
*END

*D_NET *289 0.00220815
*CONN
*I *1732:A2 I *D sky130_fd_sc_hd__mux4_1
*I *1797:A0 I *D sky130_fd_sc_hd__mux2_1
*I *1964:Q O *D sky130_fd_sc_hd__dfxtp_1
*CAP
1 *1732:A2 0.000401699
2 *1797:A0 0.00020436
3 *1964:Q 0
4 *289:4 0.000606059
5 *1732:A2 *1637:S1 5.23362e-05
6 *1732:A2 *1732:A3 0.000110949
7 *1732:A2 *1732:S0 4.86604e-05
8 *1732:A2 *1752:A1 0.00019637
9 *1732:A2 *1816:A0 1.38238e-05
10 *1797:A0 *1732:A3 1.83847e-05
11 *1797:A0 *1788:A0 0.000251588
12 *1791:S *1797:A0 0.000249914
13 *1896:D *1732:A2 5.4003e-05
*RES
1 *1964:Q *289:4 1.6 
2 *289:4 *1797:A0 9.995 
3 *289:4 *1732:A2 11.4275 
*END

*D_NET *290 0.00166943
*CONN
*I *1740:A2 I *D sky130_fd_sc_hd__mux4_1
*I *1798:A0 I *D sky130_fd_sc_hd__mux2_1
*I *1965:Q O *D sky130_fd_sc_hd__dfxtp_1
*CAP
1 *1740:A2 0.000483621
2 *1798:A0 0.000207488
3 *1965:Q 0
4 *290:4 0.000691109
5 *1740:A2 *1817:A0 2.15025e-05
6 *1740:A2 *1817:A1 7.35813e-05
7 *1740:A2 *1897:CLK 0
8 *1740:A2 *394:6 1.54837e-05
9 *1740:A2 *454:12 2.24423e-05
10 *1740:A2 *454:14 2.46089e-05
11 *1798:A0 *1740:A0 0
12 *1798:A0 *1957:CLK 0
13 *1798:A0 *407:167 0
14 *1798:A0 *421:10 0
15 *1965:D *1798:A0 0
16 *266:35 *1740:A2 9.3229e-06
17 *267:87 *1798:A0 0.000120275
*RES
1 *1965:Q *290:4 1.6 
2 *290:4 *1798:A0 8.96 
3 *290:4 *1740:A2 11.8737 
*END

*D_NET *291 0.002737
*CONN
*I *1631:A2 I *D sky130_fd_sc_hd__mux4_1
*I *1799:A0 I *D sky130_fd_sc_hd__mux2_1
*I *1966:Q O *D sky130_fd_sc_hd__dfxtp_1
*CAP
1 *1631:A2 0.00053127
2 *1799:A0 0.00047583
3 *1966:Q 0
4 *291:4 0.0010071
5 *1631:A2 *1631:A3 2.76356e-05
6 *1631:A2 *395:10 8.8266e-05
7 *1631:A2 *407:71 2.57121e-05
8 *1631:A2 *407:75 4.66826e-05
9 *1631:A2 *407:89 0.000156474
10 *1799:A0 *1966:CLK 0.000198939
11 *1966:D *1799:A0 3.86607e-05
12 *262:115 *1631:A2 0.000140433
*RES
1 *1966:Q *291:4 1.6 
2 *291:4 *1799:A0 11.405 
3 *291:4 *1631:A2 14.7087 
*END

*D_NET *292 0.00142139
*CONN
*I *1637:A2 I *D sky130_fd_sc_hd__mux4_1
*I *1800:A0 I *D sky130_fd_sc_hd__mux2_1
*I *1967:Q O *D sky130_fd_sc_hd__dfxtp_1
*CAP
1 *1637:A2 0.000448061
2 *1800:A0 0.000163381
3 *1967:Q 0
4 *292:4 0.000611442
5 *1637:A2 *1637:A0 9.09106e-05
6 *1637:A2 *1637:A1 2.89214e-05
7 *1637:A2 *1637:A3 5.18694e-05
8 *1637:A2 *1637:S1 2.68016e-05
9 *1800:A0 *300:10 0
10 *1967:D *1800:A0 0
*RES
1 *1967:Q *292:4 1.6 
2 *292:4 *1800:A0 7.61 
3 *292:4 *1637:A2 11.3488 
*END

*D_NET *293 0.00135289
*CONN
*I *1647:A2 I *D sky130_fd_sc_hd__mux4_1
*I *1801:A0 I *D sky130_fd_sc_hd__mux2_1
*I *1968:Q O *D sky130_fd_sc_hd__dfxtp_1
*CAP
1 *1647:A2 0.000187794
2 *1801:A0 0.000250682
3 *1968:Q 0
4 *293:4 0.000438476
5 *1647:A2 *1647:A3 0.000177213
6 *1801:A0 *421:33 7.23602e-05
7 *1648:A2 *1647:A2 0.00013412
8 *1960:D *1801:A0 0
9 *267:87 *1801:A0 6.61178e-05
10 *267:89 *1801:A0 2.61299e-05
*RES
1 *1968:Q *293:4 1.6 
2 *293:4 *1801:A0 8.99 
3 *293:4 *1647:A2 6.1975 
*END

*D_NET *294 0.00168547
*CONN
*I *1653:A2 I *D sky130_fd_sc_hd__mux4_1
*I *1802:A0 I *D sky130_fd_sc_hd__mux2_1
*I *1969:Q O *D sky130_fd_sc_hd__dfxtp_1
*CAP
1 *1653:A2 0.000414715
2 *1802:A0 0.000185241
3 *1969:Q 0
4 *294:4 0.000599956
5 *1653:A2 *1653:A0 9.50342e-06
6 *1653:A2 *1653:A3 0
7 *1653:A2 *1653:S0 9.71546e-05
8 *1653:A2 *1757:A1 0.000107624
9 *1653:A2 *1802:A1 0
10 *1653:A2 *436:21 0
11 *1653:A2 *436:25 0.000142661
12 *1802:A0 *1802:A1 2.75229e-05
13 *1799:S *1802:A0 5.05521e-05
14 *1901:D *1653:A2 0
15 *267:89 *1802:A0 5.05437e-05
*RES
1 *1969:Q *294:4 1.6 
2 *294:4 *1802:A0 8.975 
3 *294:4 *1653:A2 13.3888 
*END

*D_NET *295 0.00205209
*CONN
*I *1716:A3 I *D sky130_fd_sc_hd__mux4_1
*I *1786:A1 I *D sky130_fd_sc_hd__mux2_1
*I *1954:Q O *D sky130_fd_sc_hd__dfxtp_1
*CAP
1 *1716:A3 0.000110301
2 *1786:A1 9.09483e-05
3 *1954:Q 0.000133702
4 *295:8 0.000334952
5 *1716:A3 *407:248 2.76356e-05
6 *1716:A3 *447:18 0.000222813
7 *1716:A3 *451:141 0.000120321
8 *1786:A1 *407:265 1.73877e-05
9 *1786:A1 *416:92 0.000109625
10 *1786:A1 *416:96 6.54674e-05
11 *1786:A1 *447:18 3.09164e-05
12 *1786:A1 *451:115 1.60203e-05
13 *1786:A1 *451:119 2.75229e-05
14 *1786:A1 *451:141 2.23485e-05
15 *295:8 *1794:A_N 4.82919e-05
16 *1716:A2 *1716:A3 4.41506e-05
17 *1786:S *1786:A1 4.82863e-05
18 *1794:D *295:8 6.90771e-05
19 *1954:D *295:8 5.05437e-05
20 *265:26 *1786:A1 7.06865e-05
21 *265:26 *295:8 0.000382752
22 *267:14 *295:8 8.34281e-06
*RES
1 *1954:Q *295:8 7.5 
2 *295:8 *1786:A1 6.63 
3 *295:8 *1716:A3 7.05 
*END

*D_NET *296 0.000818195
*CONN
*I *1787:A1 I *D sky130_fd_sc_hd__mux2_1
*I *1726:A3 I *D sky130_fd_sc_hd__mux4_1
*I *1955:Q O *D sky130_fd_sc_hd__dfxtp_1
*CAP
1 *1787:A1 0
2 *1726:A3 3.71834e-05
3 *1955:Q 0.000174305
4 *296:6 0.000211488
5 *1726:A3 *408:30 5.53249e-06
6 *1726:A3 *408:45 9.67851e-05
7 *1726:A3 *452:14 0.000116158
8 *296:6 *1787:A0 2.49909e-05
9 *296:6 *1815:A1 5.83121e-06
10 *1787:S *296:6 2.35892e-05
11 *1815:S *296:6 0.000122331
*RES
1 *1955:Q *296:6 3.775 
2 *296:6 *1726:A3 6.98 
3 *296:6 *1787:A1 1.6 
*END

*D_NET *297 0.00140898
*CONN
*I *1788:A1 I *D sky130_fd_sc_hd__mux2_1
*I *1732:A3 I *D sky130_fd_sc_hd__mux4_1
*I *1956:Q O *D sky130_fd_sc_hd__dfxtp_1
*CAP
1 *1788:A1 8.31275e-05
2 *1732:A3 0.000193387
3 *1956:Q 8.65026e-05
4 *297:8 0.000363017
5 *1732:A3 *1732:S0 4.77757e-05
6 *1732:A3 *1752:A1 0.000153253
7 *1732:A3 *1816:A0 0.000128035
8 *1788:A1 *401:12 4.49498e-05
9 *297:8 *393:10 0
10 *297:8 *401:12 1.22676e-05
11 *1732:A2 *1732:A3 0.000110949
12 *1788:S *1788:A1 1.83756e-05
13 *1791:S *1788:A1 5.99925e-05
14 *1791:S *297:8 8.89673e-05
15 *1797:A0 *1732:A3 1.83847e-05
*RES
1 *1956:Q *297:8 5.49 
2 *297:8 *1732:A3 8.655 
3 *297:8 *1788:A1 5.43 
*END

*D_NET *298 0.00156164
*CONN
*I *1740:A3 I *D sky130_fd_sc_hd__mux4_1
*I *1789:A1 I *D sky130_fd_sc_hd__mux2_1
*I *1957:Q O *D sky130_fd_sc_hd__dfxtp_1
*CAP
1 *1740:A3 0.00020734
2 *1789:A1 0.000306828
3 *1957:Q 0
4 *298:4 0.000514168
5 *1740:A3 *1897:CLK 0
6 *1740:A3 *454:12 0.000114492
7 *1789:A1 *1740:A1 0
8 *1789:A1 *1753:A1 2.0514e-05
9 *1789:A1 *1957:CLK 0
10 *1756:S *1789:A1 6.05513e-05
11 *1820:S *1740:A3 0.00016063
12 *1820:S *1789:A1 0.00012657
13 *1957:D *1789:A1 0
14 *266:35 *1740:A3 5.05521e-05
*RES
1 *1957:Q *298:4 1.6 
2 *298:4 *1789:A1 9.845 
3 *298:4 *1740:A3 9.26 
*END

*D_NET *299 0.00257495
*CONN
*I *1631:A3 I *D sky130_fd_sc_hd__mux4_1
*I *1790:A1 I *D sky130_fd_sc_hd__mux2_1
*I *1958:Q O *D sky130_fd_sc_hd__dfxtp_1
*CAP
1 *1631:A3 0.000595505
2 *1790:A1 8.16979e-05
3 *1958:Q 9.47241e-05
4 *299:10 0.000771927
5 *1631:A3 *403:8 3.72916e-05
6 *1631:A3 *407:75 3.1562e-06
7 *1790:A1 *1790:A0 0.000297747
8 *299:10 *1790:A0 2.14129e-05
9 *299:10 *455:175 0.000176724
10 *1631:A2 *1631:A3 2.76356e-05
11 *1898:D *1631:A3 9.27495e-05
12 *1982:D *1631:A3 5.4003e-05
13 *262:115 *1631:A3 5.4003e-05
14 *266:71 *1790:A1 0.00015952
15 *266:71 *299:10 0.000101317
16 *266:73 *1790:A1 5.53249e-06
*RES
1 *1958:Q *299:10 6.195 
2 *299:10 *1790:A1 7.02 
3 *299:10 *1631:A3 14.875 
*END

*D_NET *300 0.0027149
*CONN
*I *1637:A3 I *D sky130_fd_sc_hd__mux4_1
*I *1791:A1 I *D sky130_fd_sc_hd__mux2_1
*I *1959:Q O *D sky130_fd_sc_hd__dfxtp_1
*CAP
1 *1637:A3 0.000392473
2 *1791:A1 0.000248553
3 *1959:Q 0.000236271
4 *300:10 0.000877297
5 *1637:A3 *1637:S1 1.87062e-05
6 *1637:A3 *1819:A0 0.000143054
7 *1637:A3 *456:134 0.000215713
8 *1791:A1 *1791:A0 0.000394699
9 *1791:A1 *456:134 0.000113237
10 *300:10 *1637:S0 0
11 *300:10 *396:14 0
12 *1637:A2 *1637:A3 5.18694e-05
13 *1791:S *1791:A1 2.30292e-05
14 *1800:A0 *300:10 0
15 *1959:D *300:10 0
16 *1967:D *300:10 0
*RES
1 *1959:Q *300:10 8.765 
2 *300:10 *1791:A1 6.535 
3 *300:10 *1637:A3 11.585 
*END

*D_NET *301 0.00226271
*CONN
*I *1647:A3 I *D sky130_fd_sc_hd__mux4_1
*I *1792:A1 I *D sky130_fd_sc_hd__mux2_1
*I *1960:Q O *D sky130_fd_sc_hd__dfxtp_1
*CAP
1 *1647:A3 0.000330839
2 *1792:A1 0.000298109
3 *1960:Q 0.000180276
4 *301:10 0.000809224
5 *1647:A3 *1647:S0 0
6 *1792:A1 *1647:S1 0
7 *1792:A1 *1944:CLK 9.766e-05
8 *1792:A1 *421:33 0.000130072
9 *301:10 *1756:A0 0
10 *301:10 *1960:CLK 6.74079e-05
11 *301:10 *421:33 7.26551e-05
12 *1647:A2 *1647:A3 0.000177213
13 *1648:A2 *1647:A3 4.3344e-05
14 *1900:D *301:10 0
15 *266:53 *1792:A1 2.49909e-05
16 *266:65 *1792:A1 3.09233e-05
*RES
1 *1960:Q *301:10 6.96 
2 *301:10 *1792:A1 9.345 
3 *301:10 *1647:A3 8.91 
*END

*D_NET *302 0.0013916
*CONN
*I *1653:A3 I *D sky130_fd_sc_hd__mux4_1
*I *1793:A1 I *D sky130_fd_sc_hd__mux2_1
*I *1961:Q O *D sky130_fd_sc_hd__dfxtp_1
*CAP
1 *1653:A3 0.000509303
2 *1793:A1 0.000171161
3 *1961:Q 0
4 *302:4 0.000680464
5 *1653:A3 *1653:A0 3.06697e-05
6 *1793:A1 *436:21 0
7 *1653:A2 *1653:A3 0
*RES
1 *1961:Q *302:4 1.6 
2 *302:4 *1793:A1 7.61 
3 *302:4 *1653:A3 12.275 
*END

*D_NET *303 0.00136898
*CONN
*I *1777:A0 I *D sky130_fd_sc_hd__mux2_1
*I *1718:A0 I *D sky130_fd_sc_hd__mux4_1
*I *1946:Q O *D sky130_fd_sc_hd__dfxtp_1
*CAP
1 *1777:A0 3.57333e-05
2 *1718:A0 7.8193e-05
3 *1946:Q 0.000115858
4 *303:10 0.000229784
5 *1718:A0 *1768:A1 0.000192125
6 *1777:A0 *1768:A0 7.4027e-05
7 *303:10 *2076:A 3.45588e-05
8 *1731:B1 *1777:A0 0.000107634
9 *1731:B1 *303:10 0.000136877
10 *1768:S *1718:A0 0.00022786
11 *231:24 *1718:A0 4.21973e-05
12 *265:101 *1777:A0 2.23485e-05
13 *265:101 *303:10 7.17811e-05
*RES
1 *1946:Q *303:10 6.03 
2 *303:10 *1718:A0 6.12 
3 *303:10 *1777:A0 4.98 
*END

*D_NET *304 0.00358513
*CONN
*I *1778:A0 I *D sky130_fd_sc_hd__mux2_1
*I *1724:A0 I *D sky130_fd_sc_hd__mux4_1
*I *1947:Q O *D sky130_fd_sc_hd__dfxtp_1
*CAP
1 *1778:A0 0
2 *1724:A0 0.000248938
3 *1947:Q 0.000301098
4 *304:12 0.000550035
5 *1724:A0 *1726:S0 3.34788e-05
6 *1724:A0 *1778:A1 0.000347029
7 *1724:A0 *2078:A 0.000199939
8 *1724:A0 *2094:A 0.000195068
9 *1724:A0 *425:12 8.53113e-06
10 *1724:A0 *425:40 0.00015639
11 *304:12 *1685:B 0.000164679
12 *1725:A *304:12 4.82919e-05
13 *1778:S *1724:A0 2.30292e-05
14 *1778:S *304:12 2.05056e-05
15 *2053:D *1724:A0 9.39379e-05
16 *163:108 *1724:A0 0.000789698
17 *163:108 *304:12 0.000239807
18 *220:8 *304:12 0.000164679
*RES
1 *1947:Q *304:12 12.08 
2 *304:12 *1724:A0 15.35 
3 *304:12 *1778:A0 1.6 
*END

*D_NET *305 0.00219911
*CONN
*I *1779:A0 I *D sky130_fd_sc_hd__mux2_1
*I *1734:A0 I *D sky130_fd_sc_hd__mux4_1
*I *1948:Q O *D sky130_fd_sc_hd__dfxtp_1
*CAP
1 *1779:A0 0.00024569
2 *1734:A0 0
3 *1948:Q 0.000140627
4 *305:8 0.000386317
5 *1779:A0 *1761:A0 0.000108322
6 *1779:A0 *1779:A1 0.000228401
7 *1779:A0 *2087:A 0
8 *1779:A0 *408:431 0.000185398
9 *1779:A0 *416:66 0
10 *1779:A0 *436:77 0
11 *305:8 *1734:A1 0.000214282
12 *305:8 *1761:A0 0.000203769
13 *305:8 *1770:A0 4.43871e-06
14 *305:8 *1770:A1 7.23533e-05
15 *305:8 *416:66 0
16 *1739:A1 *1779:A0 0.000198939
17 *263:55 *1779:A0 9.79385e-05
18 *270:30 *1779:A0 0.000112631
*RES
1 *1948:Q *305:8 7.275 
2 *305:8 *1734:A0 3.6 
3 *305:8 *1779:A0 11.34 
*END

*D_NET *306 0.00200069
*CONN
*I *1780:A0 I *D sky130_fd_sc_hd__mux2_1
*I *1742:A0 I *D sky130_fd_sc_hd__mux4_1
*I *1949:Q O *D sky130_fd_sc_hd__dfxtp_1
*CAP
1 *1780:A0 0.00069854
2 *1742:A0 2.78682e-05
3 *1949:Q 7.79757e-05
4 *306:12 0.000804384
5 *1742:A0 *1742:A2 3.26889e-05
6 *1780:A0 *1742:A2 0.00012105
7 *1780:A0 *1742:S1 0.000160693
8 *1780:A0 *1949:CLK 5.83121e-06
9 *1780:A0 *314:12 5.16118e-06
10 *306:12 *1742:A2 2.78409e-05
11 *306:12 *410:49 0
12 *1941:D *306:12 3.86607e-05
*RES
1 *1949:Q *306:12 6.92 
2 *306:12 *1742:A0 2.215 
3 *306:12 *1780:A0 9.64 
*END

*D_NET *307 0.0023567
*CONN
*I *1781:A0 I *D sky130_fd_sc_hd__mux2_1
*I *1629:A0 I *D sky130_fd_sc_hd__mux4_1
*I *1950:Q O *D sky130_fd_sc_hd__dfxtp_1
*CAP
1 *1781:A0 0.000516375
2 *1629:A0 0.000252849
3 *1950:Q 0
4 *307:4 0.000769225
5 *1629:A0 *1629:A2 0.000311282
6 *1629:A0 *410:57 4.40812e-05
7 *1781:A0 *1629:A2 3.57349e-05
8 *1781:A0 *1917:CLK 7.23602e-05
9 *1781:A0 *408:384 3.38227e-05
10 *1630:B *1781:A0 8.23457e-05
11 *1747:B1 *1781:A0 7.06865e-05
12 *1950:D *1781:A0 5.01066e-05
13 *231:51 *1629:A0 0.000117825
*RES
1 *1950:Q *307:4 1.6 
2 *307:4 *1629:A0 9.845 
3 *307:4 *1781:A0 11.855 
*END

*D_NET *308 0.00194275
*CONN
*I *1782:A0 I *D sky130_fd_sc_hd__mux2_1
*I *1639:A0 I *D sky130_fd_sc_hd__mux4_1
*I *1951:Q O *D sky130_fd_sc_hd__dfxtp_1
*CAP
1 *1782:A0 0.000605998
2 *1639:A0 8.78437e-05
3 *1951:Q 0.000109374
4 *308:6 0.000803215
5 *1639:A0 *455:104 0.000138857
6 *1782:A0 *1951:CLK 8.10355e-05
7 *1782:A0 *1954:CLK 0
8 *1882:S *1639:A0 9.49289e-05
9 *1951:D *1782:A0 2.14942e-05
10 *265:26 *1782:A0 0
*RES
1 *1951:Q *308:6 2.74 
2 *308:6 *1639:A0 8.255 
3 *308:6 *1782:A0 8.785 
*END

*D_NET *309 0.00224589
*CONN
*I *1783:A0 I *D sky130_fd_sc_hd__mux2_1
*I *1645:A0 I *D sky130_fd_sc_hd__mux4_1
*I *1952:Q O *D sky130_fd_sc_hd__dfxtp_1
*CAP
1 *1783:A0 0.000280232
2 *1645:A0 0
3 *1952:Q 0.000339658
4 *309:14 0.00061989
5 *1783:A0 *1783:A1 0.000371882
6 *1783:A0 *457:138 4.66108e-05
7 *309:14 *1645:A2 4.82919e-05
8 *309:14 *2090:A 0.000212557
9 *309:14 *407:69 0
10 *1652:B1 *1783:A0 0.000139238
11 *1652:B1 *309:14 0.000139238
12 *1952:D *1783:A0 4.82919e-05
*RES
1 *1952:Q *309:14 9.6 
2 *309:14 *1645:A0 3.6 
3 *309:14 *1783:A0 9.135 
*END

*D_NET *310 0.00219277
*CONN
*I *1784:A0 I *D sky130_fd_sc_hd__mux2_1
*I *1655:A0 I *D sky130_fd_sc_hd__mux4_1
*I *1953:Q O *D sky130_fd_sc_hd__dfxtp_1
*CAP
1 *1784:A0 0.000556468
2 *1655:A0 0.000135518
3 *1953:Q 0.000114362
4 *310:10 0.000806347
5 *1655:A0 *1655:A2 1.54837e-05
6 *1784:A0 *1655:A2 6.76383e-05
7 *1784:A0 *1945:CLK 4.43871e-06
8 *1784:A0 *408:394 0.000107982
9 *310:10 *1775:A1 0
10 *310:10 *334:10 0
11 *310:10 *408:402 0
12 *310:10 *436:69 2.24336e-05
13 *1652:B1 *1784:A0 0
14 *1656:A2 *1784:A0 7.63204e-05
15 *1660:B1 *1784:A0 1.01945e-05
16 *1779:S *1784:A0 0.000227543
17 *197:16 *1784:A0 4.80429e-05
*RES
1 *1953:Q *310:10 7.49 
2 *310:10 *1655:A0 3.355 
3 *310:10 *1784:A0 14.135 
*END

*D_NET *311 0.00228286
*CONN
*I *1768:A1 I *D sky130_fd_sc_hd__mux2_1
*I *1718:A1 I *D sky130_fd_sc_hd__mux4_1
*I *1938:Q O *D sky130_fd_sc_hd__dfxtp_1
*CAP
1 *1768:A1 6.4878e-05
2 *1718:A1 0
3 *1938:Q 0.000473827
4 *311:12 0.000538705
5 *311:12 *1938:CLK 6.19818e-05
6 *1718:A0 *1768:A1 0.000192125
7 *1768:S *1768:A1 4.7242e-05
8 *1769:S *311:12 9.37731e-05
9 *1938:D *311:12 0.000108614
10 *1946:D *311:12 0.00013521
11 *231:24 *1768:A1 0.000267846
12 *231:24 *311:12 0.000143833
13 *231:30 *311:12 0.000103186
14 *264:102 *311:12 5.16348e-05
*RES
1 *1938:Q *311:12 12.515 
2 *311:12 *1718:A1 1.6 
3 *311:12 *1768:A1 4.12 
*END

*D_NET *312 0.00207378
*CONN
*I *1769:A1 I *D sky130_fd_sc_hd__mux2_1
*I *1724:A1 I *D sky130_fd_sc_hd__mux4_1
*I *1939:Q O *D sky130_fd_sc_hd__dfxtp_1
*CAP
1 *1769:A1 0.000330485
2 *1724:A1 8.29508e-05
3 *1939:Q 0.000197161
4 *312:6 0.000610597
5 *1724:A1 *1724:A2 2.49909e-05
6 *1724:A1 *1796:A1 2.97004e-06
7 *1724:A1 *452:150 4.66108e-05
8 *1769:A1 *1769:A0 4.94474e-05
9 *1769:A1 *407:12 1.16578e-05
10 *1769:A1 *407:18 9.86509e-05
11 *1769:A1 *416:124 7.23635e-05
12 *312:6 *416:124 0.000318091
13 *1939:D *1769:A1 0.000113312
14 *2053:D *1724:A1 0.000114492
15 *263:110 *1724:A1 0
*RES
1 *1939:Q *312:6 4.465 
2 *312:6 *1724:A1 7.43 
3 *312:6 *1769:A1 7.375 
*END

*D_NET *313 0.00233683
*CONN
*I *1734:A1 I *D sky130_fd_sc_hd__mux4_1
*I *1770:A1 I *D sky130_fd_sc_hd__mux2_1
*I *1940:Q O *D sky130_fd_sc_hd__dfxtp_1
*CAP
1 *1734:A1 0.000140108
2 *1770:A1 0.000211301
3 *1940:Q 0.000136104
4 *313:8 0.000487513
5 *1734:A1 *1734:A3 0.000180682
6 *1734:A1 *2086:A 4.23612e-05
7 *1734:A1 *416:66 1.82476e-05
8 *1770:A1 *1734:A3 8.5242e-05
9 *1770:A1 *1770:A0 0.000322778
10 *1770:A1 *329:10 0.000188181
11 *1770:A1 *416:66 1.73877e-05
12 *313:8 *456:108 0.000197264
13 *2069:A *1770:A1 2.30292e-05
14 *305:8 *1734:A1 0.000214282
15 *305:8 *1770:A1 7.23533e-05
*RES
1 *1940:Q *313:8 5.43 
2 *313:8 *1770:A1 9.54 
3 *313:8 *1734:A1 7.395 
*END

*D_NET *314 0.00300947
*CONN
*I *1771:A1 I *D sky130_fd_sc_hd__mux2_1
*I *1742:A1 I *D sky130_fd_sc_hd__mux4_1
*I *1941:Q O *D sky130_fd_sc_hd__dfxtp_1
*CAP
1 *1771:A1 0.000153396
2 *1742:A1 0.000329403
3 *1941:Q 0.000263891
4 *314:12 0.000746689
5 *1742:A1 *1629:S0 8.53113e-06
6 *1742:A1 *1742:A2 5.8825e-05
7 *1742:A1 *407:55 0.000198051
8 *1742:A1 *410:49 0
9 *1771:A1 *1742:A3 9.28053e-05
10 *1771:A1 *424:50 7.1009e-05
11 *1771:A1 *424:65 0.000106538
12 *314:12 *1742:A2 3.01974e-05
13 *314:12 *1742:S1 4.66742e-05
14 *1747:B1 *314:12 0.000353527
15 *1774:S *1771:A1 1.03503e-05
16 *1780:A0 *314:12 5.16118e-06
17 *1941:D *1742:A1 2.15738e-05
18 *29:12 *314:12 0.000353527
19 *163:73 *1771:A1 0.000122331
20 *264:68 *1771:A1 3.69913e-05
*RES
1 *1941:Q *314:12 11.615 
2 *314:12 *1742:A1 9.875 
3 *314:12 *1771:A1 8.885 
*END

*D_NET *315 0.00212976
*CONN
*I *1629:A1 I *D sky130_fd_sc_hd__mux4_1
*I *1772:A1 I *D sky130_fd_sc_hd__mux2_1
*I *1942:Q O *D sky130_fd_sc_hd__dfxtp_1
*CAP
1 *1629:A1 6.42451e-05
2 *1772:A1 0.00025097
3 *1942:Q 0.000161706
4 *315:10 0.000476922
5 *1629:A1 *1629:A3 0.000234674
6 *1629:A1 *408:394 8.67294e-05
7 *1772:A1 *1629:S0 8.53113e-06
8 *1772:A1 *410:57 0.000383677
9 *1772:A1 *455:117 4.47125e-05
10 *315:10 *1629:S0 5.13487e-05
11 *315:10 *410:57 0.000105266
12 *1772:S *1772:A1 1.71013e-05
13 *176:14 *1772:A1 0
14 *264:20 *1772:A1 8.49205e-05
15 *265:55 *315:10 0.00015896
*RES
1 *1942:Q *315:10 6.465 
2 *315:10 *1772:A1 9.525 
3 *315:10 *1629:A1 5.775 
*END

*D_NET *316 0.00138401
*CONN
*I *1773:A1 I *D sky130_fd_sc_hd__mux2_1
*I *1639:A1 I *D sky130_fd_sc_hd__mux4_1
*I *1943:Q O *D sky130_fd_sc_hd__dfxtp_1
*CAP
1 *1773:A1 0.00010351
2 *1639:A1 0.000305559
3 *1943:Q 7.72999e-05
4 *316:6 0.000486369
5 *1639:A1 *455:104 4.11194e-05
6 *1773:A1 *454:28 5.21458e-05
7 *1644:A1 *1639:A1 1.35742e-05
8 *1882:S *1639:A1 0.000115464
9 *1943:D *1639:A1 3.80606e-05
10 *176:14 *1773:A1 0
11 *267:32 *1639:A1 2.49909e-05
12 *267:32 *1773:A1 5.23362e-05
13 *267:32 *316:6 7.35813e-05
*RES
1 *1943:Q *316:6 2.74 
2 *316:6 *1639:A1 9.845 
3 *316:6 *1773:A1 7.745 
*END

*D_NET *317 0.000910421
*CONN
*I *1774:A1 I *D sky130_fd_sc_hd__mux2_1
*I *1645:A1 I *D sky130_fd_sc_hd__mux4_1
*I *1944:Q O *D sky130_fd_sc_hd__dfxtp_1
*CAP
1 *1774:A1 0
2 *1645:A1 0.000114825
3 *1944:Q 0.000121239
4 *317:8 0.000236065
5 *1645:A1 *416:138 9.50342e-06
6 *1645:A1 *421:10 0
7 *317:8 *1783:A1 4.66108e-05
8 *317:8 *457:138 0.000201503
9 *1652:B1 *1645:A1 0.000180675
10 *1952:D *1645:A1 0
*RES
1 *1944:Q *317:8 4.135 
2 *317:8 *1645:A1 7.745 
3 *317:8 *1774:A1 1.6 
*END

*D_NET *318 0.00171931
*CONN
*I *1655:A1 I *D sky130_fd_sc_hd__mux4_1
*I *1775:A1 I *D sky130_fd_sc_hd__mux2_1
*I *1945:Q O *D sky130_fd_sc_hd__dfxtp_1
*CAP
1 *1655:A1 0
2 *1775:A1 0.000320518
3 *1945:Q 0.000114399
4 *318:10 0.000434917
5 *1775:A1 *1655:A3 0
6 *1775:A1 *1733:A 0.000238919
7 *1775:A1 *334:10 0.000180682
8 *1775:A1 *436:69 0
9 *318:10 *1655:A3 0
10 *318:10 *1655:S0 0
11 *318:10 *1784:A1 1.4399e-05
12 *1733:B *1775:A1 8.8266e-05
13 *1775:S *1775:A1 4.99619e-05
14 *263:55 *1775:A1 0.000204595
15 *263:55 *318:10 7.26551e-05
16 *310:10 *1775:A1 0
*RES
1 *1945:Q *318:10 5.685 
2 *318:10 *1775:A1 11.34 
3 *318:10 *1655:A1 3.6 
*END

*D_NET *319 0.00203475
*CONN
*I *1759:A0 I *D sky130_fd_sc_hd__mux2_1
*I *1718:A2 I *D sky130_fd_sc_hd__mux4_1
*I *1930:Q O *D sky130_fd_sc_hd__dfxtp_1
*CAP
1 *1759:A0 0.000410703
2 *1718:A2 9.34247e-06
3 *1930:Q 4.27939e-05
4 *319:8 0.000462839
5 *1718:A2 *1718:A3 1.10377e-05
6 *1759:A0 *1718:A3 5.23362e-05
7 *1759:A0 *1759:A1 0.000124895
8 *1759:A0 *408:80 8.23457e-05
9 *319:8 *1718:A3 8.53113e-06
10 *1719:A2 *1718:A2 6.90889e-06
11 *1878:S *1759:A0 0.000225182
12 *266:19 *1759:A0 3.86802e-05
13 *266:19 *319:8 7.18738e-05
14 *270:91 *1759:A0 0.000346378
15 *270:91 *319:8 0.000140905
*RES
1 *1930:Q *319:8 5.235 
2 *319:8 *1718:A2 3.79875 
3 *319:8 *1759:A0 12.375 
*END

*D_NET *320 0.00179226
*CONN
*I *1724:A2 I *D sky130_fd_sc_hd__mux4_1
*I *1760:A0 I *D sky130_fd_sc_hd__mux2_1
*I *1931:Q O *D sky130_fd_sc_hd__dfxtp_1
*CAP
1 *1724:A2 0.000508477
2 *1760:A0 0
3 *1931:Q 0.000163919
4 *320:6 0.000672396
5 *1724:A2 *1878:A1 5.4003e-05
6 *1724:A2 *1947:CLK 1.85731e-05
7 *1724:A2 *328:10 9.50342e-06
8 *1724:A2 *407:51 2.62017e-05
9 *1724:A2 *452:20 2.86623e-05
10 *1724:A2 *452:150 0.00014238
11 *320:6 *407:51 3.52139e-06
12 *1724:A1 *1724:A2 2.49909e-05
13 *1931:D *320:6 6.99781e-05
14 *263:110 *1724:A2 1.61831e-05
15 *263:110 *320:6 5.34747e-05
*RES
1 *1931:Q *320:6 3.775 
2 *320:6 *1760:A0 1.6 
3 *320:6 *1724:A2 12.0387 
*END

*D_NET *321 0.00273625
*CONN
*I *1734:A2 I *D sky130_fd_sc_hd__mux4_1
*I *1761:A0 I *D sky130_fd_sc_hd__mux2_1
*I *1932:Q O *D sky130_fd_sc_hd__dfxtp_1
*CAP
1 *1734:A2 0.000301497
2 *1761:A0 0.000184471
3 *1932:Q 0
4 *321:4 0.000485968
5 *1734:A2 *408:431 0.000174612
6 *1734:A2 *436:77 8.97486e-05
7 *1761:A0 *456:108 0.000463617
8 *1761:S *1761:A0 0.000274659
9 *1770:S *1734:A2 0.000160658
10 *1779:A0 *1761:A0 0.000108322
11 *1879:S *1761:A0 7.21296e-06
12 *263:44 *1761:A0 7.49327e-05
13 *263:55 *1761:A0 0.000162412
14 *267:32 *1761:A0 4.43682e-05
15 *305:8 *1761:A0 0.000203769
*RES
1 *1932:Q *321:4 1.6 
2 *321:4 *1761:A0 13.52 
3 *321:4 *1734:A2 11.8588 
*END

*D_NET *322 0.00177206
*CONN
*I *1742:A2 I *D sky130_fd_sc_hd__mux4_1
*I *1762:A0 I *D sky130_fd_sc_hd__mux2_1
*I *1933:Q O *D sky130_fd_sc_hd__dfxtp_1
*CAP
1 *1742:A2 0.000318006
2 *1762:A0 0.000187115
3 *1933:Q 0
4 *322:4 0.00050512
5 *1742:A2 *407:55 0.000262865
6 *1742:A2 *407:57 6.04626e-05
7 *1762:A0 *1762:A1 1.15399e-05
8 *1762:A0 *407:57 2.15067e-05
9 *1762:A0 *454:22 6.08203e-05
10 *1742:A0 *1742:A2 3.26889e-05
11 *1742:A1 *1742:A2 5.8825e-05
12 *1780:A0 *1742:A2 0.00012105
13 *164:34 *1762:A0 7.4027e-05
14 *306:12 *1742:A2 2.78409e-05
15 *314:12 *1742:A2 3.01974e-05
*RES
1 *1933:Q *322:4 1.6 
2 *322:4 *1762:A0 8.3 
3 *322:4 *1742:A2 8.74375 
*END

*D_NET *323 0.00182257
*CONN
*I *1629:A2 I *D sky130_fd_sc_hd__mux4_1
*I *1763:A0 I *D sky130_fd_sc_hd__mux2_1
*I *1934:Q O *D sky130_fd_sc_hd__dfxtp_1
*CAP
1 *1629:A2 0.000221836
2 *1763:A0 0.000209687
3 *1934:Q 2.08101e-05
4 *323:6 0.000452333
5 *1629:A2 *1629:S1 2.42236e-05
6 *1629:A2 *408:384 4.75576e-05
7 *1629:A2 *408:394 1.10377e-05
8 *1763:A0 *409:166 0
9 *1763:A0 *455:145 0.000231557
10 *1629:A0 *1629:A2 0.000311282
11 *1781:A0 *1629:A2 3.57349e-05
12 *1882:S *1763:A0 5.71917e-05
13 *1934:D *1763:A0 0
14 *176:14 *1629:A2 0.000136877
15 *231:45 *1629:A2 6.90889e-06
16 *231:51 *1763:A0 5.55384e-05
*RES
1 *1934:Q *323:6 1.96 
2 *323:6 *1763:A0 10.085 
3 *323:6 *1629:A2 10.9888 
*END

*D_NET *324 0.00158829
*CONN
*I *1639:A2 I *D sky130_fd_sc_hd__mux4_1
*I *1764:A0 I *D sky130_fd_sc_hd__mux2_1
*I *1935:Q O *D sky130_fd_sc_hd__dfxtp_1
*CAP
1 *1639:A2 0.000395181
2 *1764:A0 5.2758e-05
3 *1935:Q 3.6943e-05
4 *324:10 0.000484882
5 *1639:A2 *1639:A3 5.4003e-05
6 *1639:A2 *1639:S0 7.96711e-05
7 *1764:A0 *456:108 4.66108e-05
8 *324:10 *1773:A0 1.52184e-05
9 *324:10 *456:92 3.86529e-05
10 *1882:S *324:10 9.54399e-05
11 *176:14 *1639:A2 5.23362e-05
12 *263:32 *1639:A2 2.97473e-05
13 *263:36 *1639:A2 7.53161e-05
14 *263:44 *1639:A2 1.08758e-05
15 *263:44 *1764:A0 0.000120655
*RES
1 *1935:Q *324:10 6.725 
2 *324:10 *1764:A0 2.74 
3 *324:10 *1639:A2 11.4688 
*END

*D_NET *325 0.00126609
*CONN
*I *1645:A2 I *D sky130_fd_sc_hd__mux4_1
*I *1765:A0 I *D sky130_fd_sc_hd__mux2_1
*I *1936:Q O *D sky130_fd_sc_hd__dfxtp_1
*CAP
1 *1645:A2 0.000290251
2 *1765:A0 8.55286e-05
3 *1936:Q 4.78063e-05
4 *325:6 0.000423586
5 *1645:A2 *1645:A3 1.60083e-05
6 *1645:A2 *2073:A 1.02931e-05
7 *1645:A2 *2090:A 3.09088e-05
8 *1645:A2 *407:69 0
9 *1645:A2 *408:484 0.000116158
10 *1645:A2 *408:493 9.50342e-06
11 *1765:A0 *408:484 0
12 *1883:S *1765:A0 0.000187759
13 *309:14 *1645:A2 4.82919e-05
*RES
1 *1936:Q *325:6 2.05 
2 *325:6 *1765:A0 7.745 
3 *325:6 *1645:A2 9.7775 
*END

*D_NET *326 0.00167976
*CONN
*I *1655:A2 I *D sky130_fd_sc_hd__mux4_1
*I *1766:A0 I *D sky130_fd_sc_hd__mux2_1
*I *1937:Q O *D sky130_fd_sc_hd__dfxtp_1
*CAP
1 *1655:A2 0.000380933
2 *1766:A0 0.000219885
3 *1937:Q 0
4 *326:4 0.000600818
5 *1655:A2 *408:394 0
6 *1766:A0 *436:52 8.76033e-05
7 *1766:A0 *436:58 0.000164679
8 *1766:A0 *457:31 0.000142719
9 *1655:A0 *1655:A2 1.54837e-05
10 *1784:A0 *1655:A2 6.76383e-05
*RES
1 *1937:Q *326:4 1.6 
2 *326:4 *1766:A0 9.995 
3 *326:4 *1655:A2 6.65875 
*END

*D_NET *327 0.0011256
*CONN
*I *1718:A3 I *D sky130_fd_sc_hd__mux4_1
*I *1877:A1 I *D sky130_fd_sc_hd__mux2_1
*I *2052:Q O *D sky130_fd_sc_hd__dfxtp_1
*CAP
1 *1718:A3 0.000284309
2 *1877:A1 3.18688e-05
3 *2052:Q 7.02459e-05
4 *327:6 0.000386423
5 *1718:A3 *408:384 9.01848e-05
6 *1877:A1 *416:120 2.67022e-05
7 *327:6 *408:384 3.03775e-05
8 *1718:A2 *1718:A3 1.10377e-05
9 *1719:A2 *1718:A3 8.89741e-06
10 *1759:A0 *1718:A3 5.23362e-05
11 *1930:D *1877:A1 7.06865e-05
12 *266:19 *1718:A3 5.39961e-05
13 *319:8 *1718:A3 8.53113e-06
*RES
1 *2052:Q *327:6 2.395 
2 *327:6 *1877:A1 6.47 
3 *327:6 *1718:A3 9.425 
*END

*D_NET *328 0.00149347
*CONN
*I *1724:A3 I *D sky130_fd_sc_hd__mux4_1
*I *1878:A1 I *D sky130_fd_sc_hd__mux2_1
*I *2053:Q O *D sky130_fd_sc_hd__dfxtp_1
*CAP
1 *1724:A3 0
2 *1878:A1 0.000222234
3 *2053:Q 8.49875e-05
4 *328:10 0.000307221
5 *1878:A1 *407:234 7.70938e-05
6 *1878:A1 *409:52 0.000360611
7 *1878:A1 *452:20 4.40556e-05
8 *1878:A1 *452:22 0
9 *1878:A1 *452:134 0.000107369
10 *328:10 *1742:S1 4.66108e-05
11 *328:10 *409:52 0.000129728
12 *328:10 *452:20 5.00526e-05
13 *1724:A2 *1878:A1 5.4003e-05
14 *1724:A2 *328:10 9.50342e-06
*RES
1 *2053:Q *328:10 5.685 
2 *328:10 *1878:A1 9.615 
3 *328:10 *1724:A3 3.6 
*END

*D_NET *329 0.00283056
*CONN
*I *1734:A3 I *D sky130_fd_sc_hd__mux4_1
*I *1879:A1 I *D sky130_fd_sc_hd__mux2_1
*I *2054:Q O *D sky130_fd_sc_hd__dfxtp_1
*CAP
1 *1734:A3 0.000345558
2 *1879:A1 0.00019389
3 *2054:Q 9.90633e-05
4 *329:10 0.000638512
5 *1734:A3 *2086:A 9.18292e-06
6 *1734:A3 *416:66 8.07785e-05
7 *1879:A1 *1770:A0 0.000375351
8 *1879:A1 *1879:A0 4.82863e-05
9 *1638:B *1879:A1 8.59944e-05
10 *1734:A1 *1734:A3 0.000180682
11 *1770:A1 *1734:A3 8.5242e-05
12 *1770:A1 *329:10 0.000188181
13 *1879:S *1879:A1 0.000227055
14 *1940:D *1734:A3 0.000114492
15 *1940:D *329:10 0.00015829
*RES
1 *2054:Q *329:10 5.94 
2 *329:10 *1879:A1 9.225 
3 *329:10 *1734:A3 9.66 
*END

*D_NET *330 0.00205697
*CONN
*I *1742:A3 I *D sky130_fd_sc_hd__mux4_1
*I *1880:A1 I *D sky130_fd_sc_hd__mux2_1
*I *2055:Q O *D sky130_fd_sc_hd__dfxtp_1
*CAP
1 *1742:A3 0.000368805
2 *1880:A1 0.000175109
3 *2055:Q 0
4 *330:4 0.000543914
5 *1742:A3 *1780:A1 4.66826e-05
6 *1742:A3 *410:88 2.49909e-05
7 *1742:A3 *424:65 5.56168e-05
8 *1880:A1 *409:160 8.04014e-05
9 *1880:A1 *410:49 4.08568e-05
10 *1880:A1 *410:53 0.000112123
11 *1771:A1 *1742:A3 9.28053e-05
12 *1774:S *1742:A3 0.000144304
13 *1941:D *1742:A3 4.99619e-05
14 *163:73 *1742:A3 0.000159088
15 *164:34 *1880:A1 0.000162311
*RES
1 *2055:Q *330:4 1.6 
2 *330:4 *1880:A1 8.975 
3 *330:4 *1742:A3 12.98 
*END

*D_NET *331 0.00127585
*CONN
*I *1881:A1 I *D sky130_fd_sc_hd__mux2_1
*I *1629:A3 I *D sky130_fd_sc_hd__mux4_1
*I *2056:Q O *D sky130_fd_sc_hd__dfxtp_1
*CAP
1 *1881:A1 3.92179e-05
2 *1629:A3 0.000137871
3 *2056:Q 4.06638e-05
4 *331:6 0.000217753
5 *1629:A3 *408:394 5.55722e-05
6 *1881:A1 *454:28 0.000116165
7 *331:6 *408:394 3.82323e-06
8 *1629:A1 *1629:A3 0.000234674
9 *231:45 *1629:A3 0.00031395
10 *231:51 *1881:A1 8.53113e-06
11 *231:107 *1881:A1 0.000107634
*RES
1 *2056:Q *331:6 2.05 
2 *331:6 *1629:A3 5.98 
3 *331:6 *1881:A1 6.98 
*END

*D_NET *332 0.00159997
*CONN
*I *1639:A3 I *D sky130_fd_sc_hd__mux4_1
*I *1882:A1 I *D sky130_fd_sc_hd__mux2_1
*I *2057:Q O *D sky130_fd_sc_hd__dfxtp_1
*CAP
1 *1639:A3 0.000326725
2 *1882:A1 0.000210142
3 *2057:Q 0
4 *332:4 0.000536867
5 *1639:A3 *454:28 0
6 *1882:A1 *455:104 0
7 *1639:A2 *1639:A3 5.4003e-05
8 *1882:S *1882:A1 0.00018471
9 *2069:A *1639:A3 9.14601e-05
10 *2069:A *1882:A1 6.42013e-05
11 *176:14 *1639:A3 0.000131866
*RES
1 *2057:Q *332:4 1.6 
2 *332:4 *1882:A1 9.23 
3 *332:4 *1639:A3 11.195 
*END

*D_NET *333 0.00168474
*CONN
*I *1645:A3 I *D sky130_fd_sc_hd__mux4_1
*I *1883:A1 I *D sky130_fd_sc_hd__mux2_1
*I *2058:Q O *D sky130_fd_sc_hd__dfxtp_1
*CAP
1 *1645:A3 0.000510274
2 *1883:A1 9.29215e-05
3 *2058:Q 0
4 *333:4 0.000603196
5 *1645:A3 *2073:A 5.44207e-05
6 *1645:A3 *407:61 3.26889e-05
7 *1883:A1 *436:48 0
8 *1883:A1 *457:29 0.00018305
9 *1645:A2 *1645:A3 1.60083e-05
10 *1646:B *1645:A3 0.00011964
11 *266:65 *1645:A3 7.25441e-05
*RES
1 *2058:Q *333:4 1.6 
2 *333:4 *1883:A1 7.745 
3 *333:4 *1645:A3 8.98 
*END

*D_NET *334 0.00141115
*CONN
*I *1655:A3 I *D sky130_fd_sc_hd__mux4_1
*I *1884:A1 I *D sky130_fd_sc_hd__mux2_1
*I *2059:Q O *D sky130_fd_sc_hd__dfxtp_1
*CAP
1 *1655:A3 0.000334214
2 *1884:A1 6.64165e-05
3 *2059:Q 9.6769e-05
4 *334:10 0.000497399
5 *1655:A3 *408:402 2.60488e-05
6 *1655:A3 *436:69 0.000153482
7 *1884:A1 *436:69 4.66742e-05
8 *334:10 *436:69 0
9 *1775:A1 *1655:A3 0
10 *1775:A1 *334:10 0.000180682
11 *231:55 *1655:A3 9.46525e-06
12 *310:10 *334:10 0
13 *318:10 *1655:A3 0
*RES
1 *2059:Q *334:10 7.745 
2 *334:10 *1884:A1 2.395 
3 *334:10 *1655:A3 10.19 
*END

*D_NET *335 0.0023895
*CONN
*I *1869:A1 I *D sky130_fd_sc_hd__mux2_1
*I *1720:A1 I *D sky130_fd_sc_hd__mux4_1
*I *2044:Q O *D sky130_fd_sc_hd__dfxtp_1
*CAP
1 *1869:A1 0.000525783
2 *1720:A1 0
3 *2044:Q 0.000247574
4 *335:10 0.000773357
5 *1720:A0 *335:10 0.000231564
6 *1722:A0 *1869:A1 0
7 *1722:A0 *335:10 0
8 *272:25 *1869:A1 0.000118513
9 *272:25 *335:10 0.000179922
10 *272:35 *335:10 0.000162955
11 *277:92 *1869:A1 4.29107e-05
12 *277:102 *1869:A1 3.45588e-05
13 *279:10 *335:10 7.23602e-05
*RES
1 *2044:Q *335:10 9.105 
2 *335:10 *1720:A1 3.6 
3 *335:10 *1869:A1 10.26 
*END

*D_NET *336 0.00201669
*CONN
*I *1870:A1 I *D sky130_fd_sc_hd__mux2_1
*I *1728:A1 I *D sky130_fd_sc_hd__mux4_1
*I *2045:Q O *D sky130_fd_sc_hd__dfxtp_1
*CAP
1 *1870:A1 0.000191611
2 *1728:A1 0
3 *2045:Q 0.000661599
4 *336:10 0.000853211
5 *1870:A1 *1987:CLK 0
6 *336:10 *2045:CLK 1.27891e-05
7 *336:10 *344:8 1.45347e-05
8 *336:10 *430:67 2.49909e-05
9 *1728:A0 *1870:A1 3.05295e-05
10 *1825:A0 *1870:A1 3.67779e-05
11 *1870:S *1870:A1 1.1392e-05
12 *2045:D *336:10 7.83494e-05
13 *272:25 *1870:A1 5.98004e-06
14 *272:25 *336:10 9.49203e-05
*RES
1 *2045:Q *336:10 12.225 
2 *336:10 *1728:A1 3.6 
3 *336:10 *1870:A1 6.375 
*END

*D_NET *337 0.00119139
*CONN
*I *1871:A1 I *D sky130_fd_sc_hd__mux2_1
*I *1736:A1 I *D sky130_fd_sc_hd__mux4_1
*I *2046:Q O *D sky130_fd_sc_hd__dfxtp_1
*CAP
1 *1871:A1 5.6448e-05
2 *1736:A1 0.000294783
3 *2046:Q 0.000160524
4 *337:10 0.000511755
5 *1736:A1 *1736:S0 9.27764e-05
6 *337:10 *1736:A3 5.39961e-05
7 *337:10 *1736:S1 0
8 *337:10 *2064:CLK 2.11084e-05
9 *1736:A0 *337:10 0
10 *2046:D *1871:A1 0
11 *2046:D *337:10 0
*RES
1 *2046:Q *337:10 6.195 
2 *337:10 *1736:A1 7.425 
3 *337:10 *1871:A1 4.47 
*END

*D_NET *338 0.00246675
*CONN
*I *1744:A1 I *D sky130_fd_sc_hd__mux4_1
*I *1872:A1 I *D sky130_fd_sc_hd__mux2_1
*I *2047:Q O *D sky130_fd_sc_hd__dfxtp_1
*CAP
1 *1744:A1 0
2 *1872:A1 0.000256027
3 *2047:Q 0.000555352
4 *338:10 0.000811379
5 *1872:A1 *1827:A1 9.93004e-05
6 *1872:A1 *431:23 0.000183738
7 *1872:A1 *431:34 0.000149071
8 *1872:A1 *454:89 1.56428e-05
9 *338:10 *2047:CLK 5.83121e-06
10 *338:10 *431:34 0.00013687
11 *1746:A1 *1872:A1 0
12 *1989:D *1872:A1 5.02217e-05
13 *2047:D *1872:A1 0.000105569
14 *2047:D *338:10 5.10628e-05
15 *277:18 *1872:A1 4.66826e-05
*RES
1 *2047:Q *338:10 10.515 
2 *338:10 *1872:A1 10.05 
3 *338:10 *1744:A1 3.6 
*END

*D_NET *339 0.00150745
*CONN
*I *1633:A1 I *D sky130_fd_sc_hd__mux4_1
*I *1873:A1 I *D sky130_fd_sc_hd__mux2_1
*I *2048:Q O *D sky130_fd_sc_hd__dfxtp_1
*CAP
1 *1633:A1 0.000260507
2 *1873:A1 0.000229229
3 *2048:Q 0
4 *339:6 0.000489735
5 *1873:A1 *456:18 0.000164874
6 *1633:A0 *1633:A1 4.82919e-05
7 *1828:A0 *1633:A1 2.14129e-05
8 *1873:S *1873:A1 5.05437e-05
9 *1890:S *1873:A1 3.23663e-05
10 *1990:D *1633:A1 9.19758e-05
11 *2048:D *1873:A1 0
12 *283:10 *1633:A1 0.00011852
*RES
1 *2048:Q *339:6 3.6 
2 *339:6 *1873:A1 8.25 
3 *339:6 *1633:A1 8.76 
*END

*D_NET *340 0.0017821
*CONN
*I *1641:A1 I *D sky130_fd_sc_hd__mux4_1
*I *1874:A1 I *D sky130_fd_sc_hd__mux2_1
*I *2049:Q O *D sky130_fd_sc_hd__dfxtp_1
*CAP
1 *1641:A1 3.87571e-05
2 *1874:A1 0.000214596
3 *2049:Q 0.000263605
4 *340:8 0.000516957
5 *1874:A1 *1829:A1 0.000110206
6 *340:8 *1829:A1 2.31329e-05
7 *1641:A0 *1641:A1 5.84456e-05
8 *1641:A0 *1874:A1 4.39656e-05
9 *1828:S *1641:A1 0.000116165
10 *1828:S *1874:A1 4.44927e-05
11 *1873:S *1874:A1 1.47256e-05
12 *2049:D *340:8 1.4389e-05
13 *272:35 *1874:A1 0.000253949
14 *277:102 *1874:A1 5.83121e-06
15 *284:10 *1874:A1 6.28843e-05
*RES
1 *2049:Q *340:8 6.465 
2 *340:8 *1874:A1 9.255 
3 *340:8 *1641:A1 4.98 
*END

*D_NET *341 0.0015969
*CONN
*I *1875:A1 I *D sky130_fd_sc_hd__mux2_1
*I *1649:A1 I *D sky130_fd_sc_hd__mux4_1
*I *2050:Q O *D sky130_fd_sc_hd__dfxtp_1
*CAP
1 *1875:A1 0.00024184
2 *1649:A1 0.000119381
3 *2050:Q 0
4 *341:6 0.000361221
5 *1649:A1 *1649:A2 3.03775e-05
6 *1649:A1 *1857:A1 0.000120655
7 *1649:A1 *349:8 0.0001274
8 *1649:A1 *357:10 2.92496e-05
9 *1649:A1 *416:22 0.000112182
10 *1875:A1 *1875:A0 0.000344459
11 *1875:A1 *349:8 3.50033e-05
12 *1875:A1 *416:22 5.20968e-05
13 *1875:S *1875:A1 2.30292e-05
14 *2066:D *1875:A1 0
*RES
1 *2050:Q *341:6 3.6 
2 *341:6 *1649:A1 7.395 
3 *341:6 *1875:A1 8.28 
*END

*D_NET *342 0.00128052
*CONN
*I *1876:A1 I *D sky130_fd_sc_hd__mux2_1
*I *1657:A1 I *D sky130_fd_sc_hd__mux4_1
*I *2051:Q O *D sky130_fd_sc_hd__dfxtp_1
*CAP
1 *1876:A1 0.000160421
2 *1657:A1 0.000154255
3 *2051:Q 0
4 *342:4 0.000314676
5 *1657:A1 *1893:A0 0.000120888
6 *1657:A1 *2080:A 2.76356e-05
7 *1657:A1 *436:92 0.000229203
8 *1876:A1 *1657:A2 8.22234e-06
9 *1876:A1 *2080:A 2.8185e-05
10 *1876:A1 *407:295 8.53113e-06
11 *1876:A1 *407:373 0.000109989
12 *1871:S *1876:A1 0.00011852
13 *1888:S *1657:A1 0
*RES
1 *2051:Q *342:4 1.6 
2 *342:4 *1657:A1 9.05 
3 *342:4 *1876:A1 8.465 
*END

*D_NET *343 0.00217702
*CONN
*I *1720:A2 I *D sky130_fd_sc_hd__mux4_1
*I *1886:A0 I *D sky130_fd_sc_hd__mux2_1
*I *2060:Q O *D sky130_fd_sc_hd__dfxtp_1
*CAP
1 *1720:A2 0.000381079
2 *1886:A0 0.000220769
3 *2060:Q 0
4 *343:4 0.000601848
5 *1720:A2 *1824:A1 1.33293e-05
6 *1720:A2 *1851:A1 9.64638e-06
7 *1720:A2 *2060:CLK 1.56428e-05
8 *1720:A2 *351:10 0.000111543
9 *1720:A2 *430:14 0.000233446
10 *1720:A2 *430:16 1.56428e-05
11 *1886:A0 *451:29 0.000229652
12 *1886:A0 *451:44 0.000120888
13 *1722:A0 *1720:A2 1.54111e-05
14 *272:35 *1886:A0 5.062e-06
15 *277:102 *1886:A0 0.000181376
16 *278:110 *1886:A0 2.16833e-05
*RES
1 *2060:Q *343:4 1.6 
2 *343:4 *1886:A0 9.92 
3 *343:4 *1720:A2 11.1575 
*END

*D_NET *344 0.00192633
*CONN
*I *1728:A2 I *D sky130_fd_sc_hd__mux4_1
*I *1887:A0 I *D sky130_fd_sc_hd__mux2_1
*I *2061:Q O *D sky130_fd_sc_hd__dfxtp_1
*CAP
1 *1728:A2 6.34643e-05
2 *1887:A0 0.000278066
3 *2061:Q 0.000206344
4 *344:8 0.000547874
5 *1728:A2 *1728:S0 1.54111e-05
6 *1887:A0 *1852:A0 0.000266946
7 *1887:A0 *452:89 4.99619e-05
8 *344:8 *430:67 2.76356e-05
9 *275:16 *1728:A2 0.000114492
10 *275:16 *1887:A0 0.000183731
11 *277:92 *1728:A2 5.65627e-05
12 *277:92 *1887:A0 0.00010131
13 *336:10 *344:8 1.45347e-05
*RES
1 *2061:Q *344:8 5.775 
2 *344:8 *1887:A0 8.61 
3 *344:8 *1728:A2 5.2575 
*END

*D_NET *345 0.0016189
*CONN
*I *1888:A0 I *D sky130_fd_sc_hd__mux2_1
*I *1736:A2 I *D sky130_fd_sc_hd__mux4_1
*I *2062:Q O *D sky130_fd_sc_hd__dfxtp_1
*CAP
1 *1888:A0 0.000136046
2 *1736:A2 0.000225804
3 *2062:Q 0.000136262
4 *345:8 0.000498111
5 *1736:A2 *1736:A3 0.000122395
6 *1888:A0 *1871:A0 2.75145e-05
7 *1888:A0 *353:12 3.85797e-05
8 *1888:A0 *453:33 1.61831e-05
9 *345:8 *1988:CLK 0
10 *345:8 *353:12 3.68682e-05
11 *1738:A0 *1736:A2 4.99619e-05
12 *1738:A0 *1888:A0 4.91927e-05
13 *1853:S *1736:A2 4.66108e-05
14 *1853:S *1888:A0 2.92496e-05
15 *1853:S *345:8 0.000206123
16 *2062:D *1888:A0 0
17 *2062:D *345:8 0
*RES
1 *2062:Q *345:8 6.765 
2 *345:8 *1736:A2 7.87125 
3 *345:8 *1888:A0 6.285 
*END

*D_NET *346 0.0021152
*CONN
*I *1744:A2 I *D sky130_fd_sc_hd__mux4_1
*I *1889:A0 I *D sky130_fd_sc_hd__mux2_1
*I *2063:Q O *D sky130_fd_sc_hd__dfxtp_1
*CAP
1 *1744:A2 0.000206161
2 *1889:A0 0.000149861
3 *2063:Q 2.08101e-05
4 *346:6 0.000376832
5 *1744:A2 *1744:A3 2.87433e-05
6 *1744:A2 *1744:S1 5.4003e-05
7 *1744:A2 *408:239 9.14049e-05
8 *1889:A0 *454:34 0.000225759
9 *1644:B1 *1744:A2 0.000137571
10 *1889:S *1889:A0 7.96104e-06
11 *176:14 *1889:A0 0
12 *275:111 *1889:A0 0
13 *275:121 *1889:A0 0.000161529
14 *277:30 *1889:A0 2.20732e-05
15 *278:22 *1744:A2 0.000337046
16 *278:22 *1889:A0 0.000211424
17 *282:14 *1744:A2 8.40213e-05
*RES
1 *2063:Q *346:6 1.96 
2 *346:6 *1889:A0 10.085 
3 *346:6 *1744:A2 10.7225 
*END

*D_NET *347 0.0021141
*CONN
*I *1633:A2 I *D sky130_fd_sc_hd__mux4_1
*I *1890:A0 I *D sky130_fd_sc_hd__mux2_1
*I *2064:Q O *D sky130_fd_sc_hd__dfxtp_1
*CAP
1 *1633:A2 0.000398132
2 *1890:A0 0.000188954
3 *2064:Q 0.000190562
4 *347:6 0.000777648
5 *1633:A2 *1633:A3 1.02931e-05
6 *1633:A2 *2024:CLK 0.000115484
7 *1890:A0 *355:10 3.42142e-05
8 *1890:A0 *426:36 1.73877e-05
9 *1890:A0 *455:20 0.000177564
10 *1635:A0 *1633:A2 2.86623e-05
11 *1853:S *1633:A2 3.1562e-06
12 *1853:S *347:6 1.64405e-05
13 *1855:S *1890:A0 0.000121575
14 *1990:D *1633:A2 0
15 *2048:D *1890:A0 0
16 *2064:D *347:6 2.77183e-05
17 *275:57 *1633:A2 6.3124e-06
*RES
1 *2064:Q *347:6 3.775 
2 *347:6 *1890:A0 10.55 
3 *347:6 *1633:A2 10.8125 
*END

*D_NET *348 0.0017704
*CONN
*I *1641:A2 I *D sky130_fd_sc_hd__mux4_1
*I *1891:A0 I *D sky130_fd_sc_hd__mux2_1
*I *2065:Q O *D sky130_fd_sc_hd__dfxtp_1
*CAP
1 *1641:A2 0.000246269
2 *1891:A0 0.000191425
3 *2065:Q 0.000172737
4 *348:10 0.000610432
5 *1641:A2 *1641:A3 8.53113e-06
6 *1641:A2 *1641:S1 3.05295e-05
7 *1891:A0 *1891:A1 2.11084e-05
8 *348:10 *1641:A3 0
9 *348:10 *1641:S1 0
10 *348:10 *1856:A1 0.000180675
11 *348:10 *429:46 0
12 *1643:A0 *1641:A2 2.46495e-05
13 *1643:A0 *1891:A0 5.35969e-06
14 *1856:S *348:10 3.86529e-05
15 *1891:S *1891:A0 1.03323e-05
16 *275:44 *1641:A2 0.000112044
17 *275:44 *348:10 0.000117657
*RES
1 *2065:Q *348:10 9.785 
2 *348:10 *1891:A0 3.775 
3 *348:10 *1641:A2 9.27875 
*END

*D_NET *349 0.00192431
*CONN
*I *1649:A2 I *D sky130_fd_sc_hd__mux4_1
*I *1892:A0 I *D sky130_fd_sc_hd__mux2_1
*I *2066:Q O *D sky130_fd_sc_hd__dfxtp_1
*CAP
1 *1649:A2 0.000341008
2 *1892:A0 0.000113384
3 *2066:Q 0.00016848
4 *349:8 0.000622871
5 *1649:A2 *1649:A3 5.56041e-05
6 *1649:A2 *1649:S0 1.56428e-05
7 *1649:A2 *1649:S1 1.73877e-05
8 *1649:A2 *1857:A1 1.03323e-05
9 *1649:A2 *408:249 2.97004e-06
10 *1892:A0 *1892:A1 2.11084e-05
11 *349:8 *357:10 5.11148e-06
12 *1649:A0 *1892:A0 6.21553e-05
13 *1649:A0 *349:8 5.4003e-05
14 *1649:A1 *1649:A2 3.03775e-05
15 *1649:A1 *349:8 0.0001274
16 *1651:A1 *1649:A2 6.50848e-06
17 *1830:A0 *1892:A0 8.53113e-06
18 *1857:S *1892:A0 7.23602e-05
19 *1857:S *349:8 6.75724e-05
20 *1875:A1 *349:8 3.50033e-05
21 *1875:S *1649:A2 3.05373e-05
22 *1892:S *1892:A0 7.67415e-06
23 *2066:D *349:8 0
24 *275:121 *1892:A0 4.82919e-05
*RES
1 *2066:Q *349:8 7.785 
2 *349:8 *1892:A0 5.61 
3 *349:8 *1649:A2 11.9688 
*END

*D_NET *350 0.00182883
*CONN
*I *1657:A2 I *D sky130_fd_sc_hd__mux4_1
*I *1893:A0 I *D sky130_fd_sc_hd__mux2_1
*I *2067:Q O *D sky130_fd_sc_hd__dfxtp_1
*CAP
1 *1657:A2 0.000405528
2 *1893:A0 0.000204707
3 *2067:Q 0
4 *350:4 0.000610236
5 *1657:A2 *2080:A 8.88715e-05
6 *1657:A2 *407:293 1.83463e-05
7 *1657:A2 *407:295 0
8 *1657:A2 *416:45 0.000116853
9 *1893:A0 *1893:A1 4.82863e-05
10 *1893:A0 *2080:A 2.49909e-05
11 *1893:A0 *436:92 8.42239e-05
12 *1657:A1 *1893:A0 0.000120888
13 *1659:A1 *1657:A2 9.3229e-06
14 *1876:A1 *1657:A2 8.22234e-06
15 *1888:S *1893:A0 5.83121e-06
16 *1893:S *1893:A0 4.80285e-05
17 *2051:D *1657:A2 5.83121e-06
18 *2067:D *1893:A0 0
19 *278:41 *1893:A0 2.86623e-05
*RES
1 *2067:Q *350:4 1.6 
2 *350:4 *1893:A0 10.01 
3 *350:4 *1657:A2 11.0787 
*END

*D_NET *351 0.00197474
*CONN
*I *1851:A1 I *D sky130_fd_sc_hd__mux2_1
*I *1720:A3 I *D sky130_fd_sc_hd__mux4_1
*I *2019:Q O *D sky130_fd_sc_hd__dfxtp_1
*CAP
1 *1851:A1 0.000442339
2 *1720:A3 0
3 *2019:Q 0.000178893
4 *351:10 0.000621233
5 *1851:A1 *1851:A0 0.000120655
6 *1851:A1 *430:14 2.4997e-05
7 *351:10 *1824:A1 5.73739e-05
8 *351:10 *430:14 1.27474e-05
9 *1720:A2 *1851:A1 9.64638e-06
10 *1720:A2 *351:10 0.000111543
11 *1722:A0 *1851:A1 6.27736e-05
12 *1722:A0 *351:10 3.92502e-05
13 *2019:D *1851:A1 2.54431e-05
14 *275:34 *1851:A1 0.000267846
*RES
1 *2019:Q *351:10 6.72 
2 *351:10 *1720:A3 3.6 
3 *351:10 *1851:A1 10.65 
*END

*D_NET *352 0.000964404
*CONN
*I *1728:A3 I *D sky130_fd_sc_hd__mux4_1
*I *1852:A1 I *D sky130_fd_sc_hd__mux2_1
*I *2020:Q O *D sky130_fd_sc_hd__dfxtp_1
*CAP
1 *1728:A3 0
2 *1852:A1 0.000110282
3 *2020:Q 7.35669e-05
4 *352:10 0.000183849
5 *352:10 *1870:A0 2.75229e-05
6 *2045:D *1852:A1 0.000118496
7 *2045:D *352:10 6.5525e-05
8 *272:25 *1852:A1 0
9 *275:16 *1852:A1 0.000318466
10 *275:16 *352:10 6.66972e-05
*RES
1 *2020:Q *352:10 5.43 
2 *352:10 *1852:A1 7.275 
3 *352:10 *1728:A3 3.6 
*END

*D_NET *353 0.0015389
*CONN
*I *1736:A3 I *D sky130_fd_sc_hd__mux4_1
*I *1853:A1 I *D sky130_fd_sc_hd__mux2_1
*I *2021:Q O *D sky130_fd_sc_hd__dfxtp_1
*CAP
1 *1736:A3 0.000455712
2 *1853:A1 0
3 *2021:Q 0.000101479
4 *353:12 0.000557191
5 *1736:A3 *1736:S1 4.18603e-06
6 *353:12 *419:63 2.11084e-05
7 *353:12 *419:70 4.9253e-06
8 *1736:A2 *1736:A3 0.000122395
9 *1738:A0 *1736:A3 1.83756e-05
10 *1853:S *1736:A3 4.65515e-05
11 *1888:A0 *353:12 3.85797e-05
12 *2046:D *1736:A3 0
13 *2062:D *353:12 7.75325e-05
14 *337:10 *1736:A3 5.39961e-05
15 *345:8 *353:12 3.68682e-05
*RES
1 *2021:Q *353:12 8.195 
2 *353:12 *1853:A1 1.6 
3 *353:12 *1736:A3 11.495 
*END

*D_NET *354 0.00125684
*CONN
*I *1854:A1 I *D sky130_fd_sc_hd__mux2_1
*I *1744:A3 I *D sky130_fd_sc_hd__mux4_1
*I *2022:Q O *D sky130_fd_sc_hd__dfxtp_1
*CAP
1 *1854:A1 0.000124554
2 *1744:A3 0.000186902
3 *2022:Q 0
4 *354:4 0.000311457
5 *1744:A3 *408:243 9.23772e-05
6 *1744:A3 *408:247 3.03684e-05
7 *1854:A1 *454:34 0
8 *1744:A2 *1744:A3 2.87433e-05
9 *1746:A0 *1744:A3 0.000220654
10 *1854:S *1854:A1 0.000120186
11 *176:14 *1854:A1 0.000141599
*RES
1 *2022:Q *354:4 1.6 
2 *354:4 *1744:A3 6.115 
3 *354:4 *1854:A1 8.375 
*END

*D_NET *355 0.00190626
*CONN
*I *1633:A3 I *D sky130_fd_sc_hd__mux4_1
*I *1855:A1 I *D sky130_fd_sc_hd__mux2_1
*I *2023:Q O *D sky130_fd_sc_hd__dfxtp_1
*CAP
1 *1633:A3 0.000331808
2 *1855:A1 4.58537e-05
3 *2023:Q 9.25586e-05
4 *355:10 0.000470221
5 *1633:A3 *1633:S0 3.05295e-05
6 *1633:A3 *1736:S1 0.000116184
7 *1633:A3 *408:158 2.24336e-05
8 *1633:A3 *455:31 5.83121e-06
9 *1855:A1 *1736:S0 1.82667e-05
10 *1855:A1 *1736:S1 3.83194e-05
11 *1855:A1 *455:31 9.2741e-05
12 *355:10 *1736:S0 1.07797e-05
13 *355:10 *426:32 0.000171172
14 *355:10 *426:36 0.000140905
15 *1633:A2 *1633:A3 1.02931e-05
16 *1855:S *1855:A1 4.66108e-05
17 *1855:S *355:10 0.000227536
18 *1890:A0 *355:10 3.42142e-05
*RES
1 *2023:Q *355:10 9.275 
2 *355:10 *1855:A1 3.085 
3 *355:10 *1633:A3 10.7 
*END

*D_NET *356 0.00214686
*CONN
*I *1641:A3 I *D sky130_fd_sc_hd__mux4_1
*I *1856:A1 I *D sky130_fd_sc_hd__mux2_1
*I *2024:Q O *D sky130_fd_sc_hd__dfxtp_1
*CAP
1 *1641:A3 0.000378122
2 *1856:A1 0.00023901
3 *2024:Q 0.000123492
4 *356:6 0.000740624
5 *1641:A3 *1991:CLK 6.83629e-05
6 *1856:A1 *429:46 3.05238e-05
7 *1856:A1 *456:195 2.11084e-05
8 *1856:A1 *456:202 2.11084e-05
9 *356:6 *1991:CLK 4.80182e-05
10 *1641:A2 *1641:A3 8.53113e-06
11 *1643:A0 *1641:A3 4.13249e-05
12 *1856:S *1856:A1 8.77898e-05
13 *1873:S *1856:A1 8.65961e-05
14 *1890:S *1856:A1 0
15 *2024:D *1856:A1 0
16 *2024:D *356:6 3.64998e-06
17 *2049:D *1641:A3 6.5058e-05
18 *275:44 *1641:A3 0
19 *275:57 *356:6 2.86265e-06
20 *348:10 *1641:A3 0
21 *348:10 *1856:A1 0.000180675
*RES
1 *2024:Q *356:6 3.085 
2 *356:6 *1856:A1 11.09 
3 *356:6 *1641:A3 10.79 
*END

*D_NET *357 0.00195002
*CONN
*I *1649:A3 I *D sky130_fd_sc_hd__mux4_1
*I *1857:A1 I *D sky130_fd_sc_hd__mux2_1
*I *2025:Q O *D sky130_fd_sc_hd__dfxtp_1
*CAP
1 *1649:A3 9.45286e-05
2 *1857:A1 9.80311e-05
3 *2025:Q 0.000111153
4 *357:10 0.000303713
5 *1649:A3 *1649:S0 4.66108e-05
6 *1857:A1 *457:50 1.4389e-05
7 *357:10 *416:22 0.000337517
8 *1649:A0 *357:10 6.28765e-05
9 *1649:A1 *1857:A1 0.000120655
10 *1649:A1 *357:10 2.92496e-05
11 *1649:A2 *1649:A3 5.56041e-05
12 *1649:A2 *1857:A1 1.03323e-05
13 *1651:A1 *1649:A3 0.000197694
14 *1651:A1 *1857:A1 0.000311282
15 *1830:A0 *357:10 0.00010131
16 *1857:S *1857:A1 4.99619e-05
17 *349:8 *357:10 5.11148e-06
*RES
1 *2025:Q *357:10 9.53 
2 *357:10 *1857:A1 4.825 
3 *357:10 *1649:A3 4.24 
*END

*D_NET *358 0.00129967
*CONN
*I *1657:A3 I *D sky130_fd_sc_hd__mux4_1
*I *1858:A1 I *D sky130_fd_sc_hd__mux2_1
*I *2026:Q O *D sky130_fd_sc_hd__dfxtp_1
*CAP
1 *1657:A3 0.000168345
2 *1858:A1 8.44333e-05
3 *2026:Q 0
4 *358:6 0.000252778
5 *1858:A1 *1831:A1 4.82919e-05
6 *1657:A0 *1657:A3 0.000138718
7 *1657:A0 *1858:A1 0.000110683
8 *1659:A1 *1657:A3 0.000129107
9 *1831:A0 *1858:A1 7.23602e-05
10 *1858:S *1657:A3 0.000103176
11 *1858:S *1858:A1 0.000183043
12 *1871:S *1657:A3 8.73147e-06
*RES
1 *2026:Q *358:6 3.6 
2 *358:6 *1858:A1 6.195 
3 *358:6 *1657:A3 7.5 
*END

*D_NET *359 0.00222408
*CONN
*I *1721:A0 I *D sky130_fd_sc_hd__mux4_1
*I *1860:A0 I *D sky130_fd_sc_hd__mux2_1
*I *2036:Q O *D sky130_fd_sc_hd__dfxtp_1
*CAP
1 *1721:A0 0.000270614
2 *1860:A0 9.10994e-05
3 *2036:Q 0.000212228
4 *359:10 0.000573941
5 *1721:A0 *1721:A2 2.05864e-05
6 *1721:A0 *1721:S0 3.57349e-05
7 *1721:A0 *2082:A 0.000131973
8 *1721:A0 *407:449 4.99619e-05
9 *1721:A0 *407:517 0.000113237
10 *1860:A0 *1722:S 0.000119521
11 *359:10 *1722:S 2.97004e-06
12 *359:10 *430:8 0
13 *1723:B1 *1721:A0 0.000148874
14 *2036:D *1860:A0 0.000285883
15 *2036:D *359:10 0.000167456
*RES
1 *2036:Q *359:10 6.72 
2 *359:10 *1860:A0 7.02 
3 *359:10 *1721:A0 9.33 
*END

*D_NET *360 0.00142352
*CONN
*I *1729:A0 I *D sky130_fd_sc_hd__mux4_1
*I *1861:A0 I *D sky130_fd_sc_hd__mux2_1
*I *2037:Q O *D sky130_fd_sc_hd__dfxtp_1
*CAP
1 *1729:A0 0.000110933
2 *1861:A0 0.000205626
3 *2037:Q 0
4 *360:6 0.000316559
5 *1729:A0 *1729:A2 0
6 *1729:A0 *368:10 6.10014e-05
7 *1861:A0 *1729:A2 0.000278111
8 *1861:A0 *1843:A1 4.35348e-05
9 *1861:A0 *1861:A1 4.66108e-05
10 *1861:A0 *376:10 4.99619e-05
11 *1843:S *1861:A0 0.000109931
12 *1861:S *1861:A0 0
13 *2004:D *1729:A0 0.000139245
14 *276:22 *1729:A0 0
15 *276:22 *1861:A0 0
16 *276:35 *1861:A0 6.20088e-05
17 *276:117 *1861:A0 0
*RES
1 *2037:Q *360:6 3.6 
2 *360:6 *1861:A0 8.79 
3 *360:6 *1729:A0 6.255 
*END

*D_NET *361 0.00283024
*CONN
*I *1862:A0 I *D sky130_fd_sc_hd__mux2_1
*I *1737:A0 I *D sky130_fd_sc_hd__mux4_1
*I *2038:Q O *D sky130_fd_sc_hd__dfxtp_1
*CAP
1 *1862:A0 0.000140143
2 *1737:A0 0.000365271
3 *2038:Q 0.000277157
4 *361:10 0.000782572
5 *1737:A0 *1737:A1 2.10152e-05
6 *1737:A0 *1737:A2 6.90889e-06
7 *1737:A0 *1737:A3 0.000143258
8 *1737:A0 *1737:S0 4.89295e-05
9 *1737:A0 *1737:S1 2.49909e-05
10 *1737:A0 *385:8 4.77153e-05
11 *1862:A0 *1844:A0 7.84667e-05
12 *1862:A0 *453:79 2.49909e-05
13 *1862:A0 *453:90 2.16917e-05
14 *1835:S *1862:A0 0.000428197
15 *1835:S *361:10 7.06865e-05
16 *1862:S *1862:A0 3.25831e-05
17 *2005:D *1862:A0 0.000198293
18 *2005:D *361:10 7.06865e-05
19 *274:55 *1862:A0 4.66826e-05
*RES
1 *2038:Q *361:10 6.99 
2 *361:10 *1737:A0 8.67 
3 *361:10 *1862:A0 9.345 
*END

*D_NET *362 0.00142983
*CONN
*I *1745:A0 I *D sky130_fd_sc_hd__mux4_1
*I *1863:A0 I *D sky130_fd_sc_hd__mux2_1
*I *2039:Q O *D sky130_fd_sc_hd__dfxtp_1
*CAP
1 *1745:A0 4.83319e-05
2 *1863:A0 0.000114763
3 *2039:Q 0.000190316
4 *362:10 0.000353411
5 *1745:A0 *370:10 0.00011852
6 *1745:A0 *456:84 0.000154488
7 *362:10 *1845:A1 0
8 *362:10 *386:14 0.000157172
9 *362:10 *454:53 0
10 *362:10 *456:84 0.000141599
11 *1863:S *1863:A0 5.38551e-05
12 *2006:D *1745:A0 1.07797e-05
13 *2006:D *1863:A0 8.65961e-05
*RES
1 *2039:Q *362:10 6.72 
2 *362:10 *1863:A0 5.775 
3 *362:10 *1745:A0 5.49 
*END

*D_NET *363 0.00196796
*CONN
*I *1864:A0 I *D sky130_fd_sc_hd__mux2_1
*I *1634:A0 I *D sky130_fd_sc_hd__mux4_1
*I *2040:Q O *D sky130_fd_sc_hd__dfxtp_1
*CAP
1 *1864:A0 0.000173968
2 *1634:A0 0.00024555
3 *2040:Q 0.000254838
4 *363:12 0.000674355
5 *1634:A0 *1634:A3 5.27083e-05
6 *1634:A0 *1634:S0 4.23703e-05
7 *1864:A0 *426:32 7.63204e-05
8 *1864:A0 *455:55 0.000111505
9 *363:12 *1634:A2 1.32668e-05
10 *363:12 *1634:A3 1.83847e-05
11 *363:12 *1634:S1 5.4003e-05
12 *1635:A0 *1864:A0 0.000165761
13 *1635:A0 *363:12 7.26551e-05
14 *2016:D *363:12 0
15 *274:53 *363:12 1.22773e-05
*RES
1 *2040:Q *363:12 9.575 
2 *363:12 *1634:A0 4.735 
3 *363:12 *1864:A0 10.55 
*END

*D_NET *364 0.00123516
*CONN
*I *1642:A0 I *D sky130_fd_sc_hd__mux4_1
*I *1865:A0 I *D sky130_fd_sc_hd__mux2_1
*I *2041:Q O *D sky130_fd_sc_hd__dfxtp_1
*CAP
1 *1642:A0 9.90682e-05
2 *1865:A0 0.000135409
3 *2041:Q 0
4 *364:6 0.000234477
5 *1642:A0 *1642:A1 4.66108e-05
6 *1642:A0 *1970:CLK 5.39961e-05
7 *1642:A0 *429:12 0.000133075
8 *1642:A0 *429:73 4.44927e-05
9 *1865:A0 *1865:A1 4.99619e-05
10 *1865:A0 *1970:CLK 0.000117825
11 *1643:A0 *1865:A0 8.09021e-06
12 *1643:A1 *1642:A0 5.81675e-05
13 *1864:S *1865:A0 1.71013e-05
14 *269:26 *1865:A0 7.89269e-05
15 *276:117 *1642:A0 9.50885e-05
16 *276:117 *1865:A0 6.28687e-05
*RES
1 *2041:Q *364:6 3.6 
2 *364:6 *1865:A0 7.065 
3 *364:6 *1642:A0 6.705 
*END

*D_NET *365 0.00298814
*CONN
*I *1650:A0 I *D sky130_fd_sc_hd__mux4_1
*I *1866:A0 I *D sky130_fd_sc_hd__mux2_1
*I *2042:Q O *D sky130_fd_sc_hd__dfxtp_1
*CAP
1 *1650:A0 0.000540588
2 *1866:A0 0.00029475
3 *2042:Q 6.842e-05
4 *365:8 0.000903758
5 *1650:A0 *1650:A2 8.302e-05
6 *1650:A0 *1650:A3 7.71277e-05
7 *1650:A0 *1839:A1 4.11409e-05
8 *1866:A0 *1866:A1 8.70195e-05
9 *1866:A0 *2096:A 8.40269e-05
10 *1866:A0 *427:21 0.000139933
11 *1866:A0 *427:43 0.000198286
12 *365:8 *427:43 4.66108e-05
13 *1839:S *1650:A0 6.28498e-05
14 *1839:S *1866:A0 0.000360611
*RES
1 *2042:Q *365:8 4.395 
2 *365:8 *1866:A0 10.305 
3 *365:8 *1650:A0 10.71 
*END

*D_NET *366 0.00184581
*CONN
*I *1867:A0 I *D sky130_fd_sc_hd__mux2_1
*I *1658:A0 I *D sky130_fd_sc_hd__mux4_1
*I *2043:Q O *D sky130_fd_sc_hd__dfxtp_1
*CAP
1 *1867:A0 0.000429038
2 *1658:A0 0.000248236
3 *2043:Q 0
4 *366:4 0.000677275
5 *1658:A0 *436:133 6.05336e-05
6 *1867:A0 *407:311 0.000185709
7 *1867:A0 *427:94 7.23533e-05
8 *1867:A0 *436:133 1.25362e-05
9 *1807:S *1658:A0 0
10 *1866:S *1867:A0 7.23533e-05
11 *2043:D *1867:A0 8.7774e-05
*RES
1 *2043:Q *366:4 1.6 
2 *366:4 *1658:A0 9.395 
3 *366:4 *1867:A0 11.405 
*END

*D_NET *367 0.00182065
*CONN
*I *1833:A1 I *D sky130_fd_sc_hd__mux2_1
*I *1721:A1 I *D sky130_fd_sc_hd__mux4_1
*I *2003:Q O *D sky130_fd_sc_hd__dfxtp_1
*CAP
1 *1833:A1 6.96581e-05
2 *1721:A1 0.000259643
3 *2003:Q 0.000137934
4 *367:6 0.000467236
5 *1721:A1 *1643:S 0.000197269
6 *1721:A1 *407:439 0.000110215
7 *1721:A1 *407:523 0
8 *1833:A1 *407:439 0.000130065
9 *367:6 *1643:S 0.000192125
10 *1833:S *1833:A1 9.50342e-06
11 *269:12 *1721:A1 0.000122474
12 *278:102 *1833:A1 0.000124532
*RES
1 *2003:Q *367:6 3.43 
2 *367:6 *1721:A1 10.85 
3 *367:6 *1833:A1 8.255 
*END

*D_NET *368 0.00111587
*CONN
*I *1834:A1 I *D sky130_fd_sc_hd__mux2_1
*I *1729:A1 I *D sky130_fd_sc_hd__mux4_1
*I *2004:Q O *D sky130_fd_sc_hd__dfxtp_1
*CAP
1 *1834:A1 0.000226183
2 *1729:A1 0
3 *2004:Q 0.000123387
4 *368:10 0.000349569
5 *1834:A1 *1834:A0 4.99619e-05
6 *1834:A1 *384:12 5.05521e-05
7 *1834:A1 *407:265 0
8 *1834:A1 *431:12 0.000154828
9 *368:10 *384:12 0
10 *368:10 *407:285 0
11 *1729:A0 *368:10 6.10014e-05
12 *1971:D *1834:A1 0
13 *2004:D *1834:A1 4.11194e-05
14 *2004:D *368:10 5.92681e-05
*RES
1 *2004:Q *368:10 5.685 
2 *368:10 *1729:A1 3.6 
3 *368:10 *1834:A1 8.355 
*END

*D_NET *369 0.00230516
*CONN
*I *1737:A1 I *D sky130_fd_sc_hd__mux4_1
*I *1835:A1 I *D sky130_fd_sc_hd__mux2_1
*I *2005:Q O *D sky130_fd_sc_hd__dfxtp_1
*CAP
1 *1737:A1 4.02271e-05
2 *1835:A1 0.000262239
3 *2005:Q 0.000129879
4 *369:10 0.000432345
5 *1737:A1 *1737:A3 4.66108e-05
6 *1737:A1 *385:8 2.86792e-05
7 *1835:A1 *1737:A3 4.9968e-05
8 *1835:A1 *1807:A1 0.000118513
9 *1835:A1 *377:10 0.000273364
10 *1835:A1 *419:14 4.18482e-05
11 *1835:A1 *453:57 0.000433395
12 *1835:A1 *453:70 0.000191196
13 *369:10 *1737:S0 2.75145e-05
14 *369:10 *453:70 0.000114492
15 *1737:A0 *1737:A1 2.10152e-05
16 *1807:S *1737:A1 9.38785e-05
*RES
1 *2005:Q *369:10 5.775 
2 *369:10 *1835:A1 11.25 
3 *369:10 *1737:A1 5.085 
*END

*D_NET *370 0.00149357
*CONN
*I *1836:A1 I *D sky130_fd_sc_hd__mux2_1
*I *1745:A1 I *D sky130_fd_sc_hd__mux4_1
*I *2006:Q O *D sky130_fd_sc_hd__dfxtp_1
*CAP
1 *1836:A1 0.000160093
2 *1745:A1 6.08094e-05
3 *2006:Q 7.30528e-05
4 *370:10 0.000293955
5 *1745:A1 *1745:A2 0.000120655
6 *1836:A1 *1836:A0 1.19928e-05
7 *1836:A1 *454:49 6.0011e-05
8 *1836:A1 *454:53 0
9 *1836:A1 *456:84 0.000150548
10 *370:10 *456:84 1.1561e-05
11 *1745:A0 *370:10 0.00011852
12 *2006:D *1836:A1 0.000113797
13 *2006:D *370:10 0.000188225
14 *269:77 *1836:A1 0.000130348
*RES
1 *2006:Q *370:10 5.685 
2 *370:10 *1745:A1 4.74 
3 *370:10 *1836:A1 7.665 
*END

*D_NET *371 0.00201183
*CONN
*I *1837:A1 I *D sky130_fd_sc_hd__mux2_1
*I *1634:A1 I *D sky130_fd_sc_hd__mux4_1
*I *2007:Q O *D sky130_fd_sc_hd__dfxtp_1
*CAP
1 *1837:A1 0.000202675
2 *1634:A1 2.89741e-05
3 *2007:Q 0.000334467
4 *371:10 0.000566116
5 *1634:A1 *1634:A3 2.49909e-05
6 *1837:A1 *1634:S0 1.22762e-05
7 *1837:A1 *1738:S 0.000163204
8 *1837:A1 *455:55 0
9 *1837:A1 *455:57 4.99619e-05
10 *1837:A1 *455:73 0.0001249
11 *371:10 *1634:S0 4.49498e-05
12 *371:10 *407:467 2.05573e-05
13 *2007:D *1837:A1 0.000320236
14 *2007:D *371:10 0.00011852
15 *2040:D *1837:A1 0
*RES
1 *2007:Q *371:10 7.845 
2 *371:10 *1634:A1 4.05 
3 *371:10 *1837:A1 9.015 
*END

*D_NET *372 0.00115502
*CONN
*I *1838:A1 I *D sky130_fd_sc_hd__mux2_1
*I *1642:A1 I *D sky130_fd_sc_hd__mux4_1
*I *2008:Q O *D sky130_fd_sc_hd__dfxtp_1
*CAP
1 *1838:A1 0.000165585
2 *1642:A1 0.00019695
3 *2008:Q 0
4 *372:6 0.000362534
5 *1642:A1 *1642:S0 3.26889e-05
6 *1642:A1 *407:449 0.000111901
7 *1642:A1 *408:216 0
8 *1642:A1 *429:10 3.64998e-06
9 *1838:A1 *408:216 0
10 *1642:A0 *1642:A1 4.66108e-05
11 *1643:A1 *1642:A1 4.29016e-05
12 *1644:B1 *1838:A1 1.39431e-05
13 *1838:S *1838:A1 2.11084e-05
14 *276:117 *1642:A1 0.000118496
15 *276:117 *1838:A1 3.86529e-05
*RES
1 *2008:Q *372:6 3.6 
2 *372:6 *1642:A1 8.19 
3 *372:6 *1838:A1 5.955 
*END

*D_NET *373 0.00183487
*CONN
*I *1839:A1 I *D sky130_fd_sc_hd__mux2_1
*I *1650:A1 I *D sky130_fd_sc_hd__mux4_1
*I *2009:Q O *D sky130_fd_sc_hd__dfxtp_1
*CAP
1 *1839:A1 0.000313711
2 *1650:A1 0
3 *2009:Q 0.000164687
4 *373:10 0.000478397
5 *1839:A1 *1650:A3 0.000159845
6 *1839:A1 *1811:A1 0
7 *1839:A1 *457:85 3.75126e-05
8 *1839:A1 *457:95 0.000377226
9 *373:10 *1650:S0 0
10 *373:10 *389:10 6.47594e-05
11 *373:10 *457:95 3.09233e-05
12 *1650:A0 *1839:A1 4.11409e-05
13 *1811:S *373:10 7.24866e-05
14 *2009:D *1839:A1 9.41783e-05
15 *2042:D *373:10 0
*RES
1 *2009:Q *373:10 9.02 
2 *373:10 *1650:A1 1.6 
3 *373:10 *1839:A1 13.31 
*END

*D_NET *374 0.00275058
*CONN
*I *1840:A1 I *D sky130_fd_sc_hd__mux2_1
*I *1658:A1 I *D sky130_fd_sc_hd__mux4_1
*I *2010:Q O *D sky130_fd_sc_hd__dfxtp_1
*CAP
1 *1840:A1 0.000125348
2 *1658:A1 0.000501841
3 *2010:Q 0.00029957
4 *374:10 0.000926759
5 *1658:A1 *1658:A2 0.000243532
6 *1658:A1 *1658:A3 0.00017215
7 *1658:A1 *1658:S0 4.77153e-05
8 *1658:A1 *1737:S0 6.18754e-05
9 *1840:A1 *1737:S0 0
10 *1840:A1 *1840:A0 4.05053e-05
11 *1840:A1 *427:79 1.66134e-05
12 *374:10 *427:79 9.34632e-05
13 *1807:S *374:10 7.35729e-05
14 *2010:D *1658:A1 7.39699e-05
15 *2010:D *1840:A1 7.36653e-05
*RES
1 *2010:Q *374:10 5.965 
2 *374:10 *1658:A1 13.955 
3 *374:10 *1840:A1 7.775 
*END

*D_NET *375 0.00115137
*CONN
*I *1721:A2 I *D sky130_fd_sc_hd__mux4_1
*I *1842:A0 I *D sky130_fd_sc_hd__mux2_1
*I *2011:Q O *D sky130_fd_sc_hd__dfxtp_1
*CAP
1 *1721:A2 0.0002181
2 *1842:A0 0
3 *2011:Q 0.000189631
4 *375:8 0.000407731
5 *1721:A2 *1721:A3 0.000116158
6 *1721:A2 *1842:A1 8.23457e-05
7 *1721:A2 *2082:A 6.33739e-05
8 *1721:A2 *408:146 3.23391e-05
9 *1721:A0 *1721:A2 2.05864e-05
10 *2011:D *375:8 2.11084e-05
*RES
1 *2011:Q *375:8 4.555 
2 *375:8 *1842:A0 1.6 
3 *375:8 *1721:A2 9.00875 
*END

*D_NET *376 0.00208164
*CONN
*I *1729:A2 I *D sky130_fd_sc_hd__mux4_1
*I *1843:A0 I *D sky130_fd_sc_hd__mux2_1
*I *2012:Q O *D sky130_fd_sc_hd__dfxtp_1
*CAP
1 *1729:A2 0.000267392
2 *1843:A0 0
3 *2012:Q 0.000124865
4 *376:10 0.000392256
5 *1729:A2 *1806:A0 6.90889e-06
6 *1729:A2 *1843:A1 0.000241483
7 *1729:A2 *407:427 0
8 *1729:A0 *1729:A2 0
9 *1843:S *376:10 0
10 *1861:A0 *1729:A2 0.000278111
11 *1861:A0 *376:10 4.99619e-05
12 *1861:S *1729:A2 5.16348e-05
13 *2004:D *1729:A2 0
14 *2012:D *376:10 4.27071e-05
15 *269:8 *1729:A2 4.38051e-05
16 *269:12 *1729:A2 0.000326645
17 *269:61 *1729:A2 1.10377e-05
18 *276:22 *1729:A2 7.06865e-05
19 *276:35 *376:10 0.000174147
*RES
1 *2012:Q *376:10 4.75 
2 *376:10 *1843:A0 1.6 
3 *376:10 *1729:A2 13.3138 
*END

*D_NET *377 0.00290295
*CONN
*I *1844:A0 I *D sky130_fd_sc_hd__mux2_1
*I *1737:A2 I *D sky130_fd_sc_hd__mux4_1
*I *2013:Q O *D sky130_fd_sc_hd__dfxtp_1
*CAP
1 *1844:A0 0.000301588
2 *1737:A2 1.35917e-05
3 *2013:Q 0.000404627
4 *377:10 0.000719807
5 *1844:A0 *1737:S0 0.000141434
6 *1844:A0 *1844:A1 0.000155205
7 *1844:A0 *453:79 0.000129177
8 *377:10 *1737:S0 1.67904e-05
9 *377:10 *419:14 3.17501e-05
10 *377:10 *453:51 4.9968e-05
11 *1737:A0 *1737:A2 6.90889e-06
12 *1835:A1 *377:10 0.000273364
13 *1862:A0 *1844:A0 7.84667e-05
14 *1862:S *1844:A0 1.70935e-05
15 *2005:D *1844:A0 7.89767e-05
16 *2005:D *377:10 0.000173965
17 *274:55 *1844:A0 0.000264225
18 *274:61 *1844:A0 4.60123e-05
*RES
1 *2013:Q *377:10 11.505 
2 *377:10 *1737:A2 3.79875 
3 *377:10 *1844:A0 12.72 
*END

*D_NET *378 0.00255259
*CONN
*I *1745:A2 I *D sky130_fd_sc_hd__mux4_1
*I *1845:A0 I *D sky130_fd_sc_hd__mux2_1
*I *2014:Q O *D sky130_fd_sc_hd__dfxtp_1
*CAP
1 *1745:A2 0.000242805
2 *1845:A0 0.000415711
3 *2014:Q 5.61995e-05
4 *378:8 0.000714715
5 *1745:A2 *1745:S0 4.66108e-05
6 *1745:A2 *407:289 0.000137182
7 *1745:A2 *407:293 0.00033764
8 *1845:A0 *1845:A1 0.000164874
9 *1845:A0 *455:104 0
10 *378:8 *455:104 0
11 *1745:A1 *1745:A2 0.000120655
12 *1973:D *1845:A0 0.000227732
13 *1973:D *378:8 4.94404e-05
14 *176:14 *1845:A0 3.90266e-05
*RES
1 *2014:Q *378:8 4.725 
2 *378:8 *1845:A0 11.4 
3 *378:8 *1745:A2 9.09375 
*END

*D_NET *379 0.00352813
*CONN
*I *1634:A2 I *D sky130_fd_sc_hd__mux4_1
*I *1846:A0 I *D sky130_fd_sc_hd__mux2_1
*I *2015:Q O *D sky130_fd_sc_hd__dfxtp_1
*CAP
1 *1634:A2 0.000687254
2 *1846:A0 0.00024319
3 *2015:Q 0.000140252
4 *379:10 0.0010707
5 *1634:A2 *455:55 0.000245192
6 *1634:A2 *455:73 3.57349e-05
7 *1846:A0 *1846:A1 0.000179027
8 *1846:A0 *455:73 1.08758e-05
9 *379:10 *1809:A1 0.000117832
10 *379:10 *416:45 0.000197415
11 *379:10 *455:73 2.92496e-05
12 *1635:A0 *1634:A2 0
13 *1809:S *1634:A2 0.000419386
14 *1826:S *379:10 2.37234e-05
15 *253:12 *379:10 8.05587e-05
16 *274:53 *1634:A2 2.41325e-05
17 *274:55 *1846:A0 1.03423e-05
18 *363:12 *1634:A2 1.32668e-05
*RES
1 *2015:Q *379:10 9.785 
2 *379:10 *1846:A0 4.81 
3 *379:10 *1634:A2 15.1287 
*END

*D_NET *380 0.0023628
*CONN
*I *1642:A2 I *D sky130_fd_sc_hd__mux4_1
*I *1847:A0 I *D sky130_fd_sc_hd__mux2_1
*I *2016:Q O *D sky130_fd_sc_hd__dfxtp_1
*CAP
1 *1642:A2 0.000457574
2 *1847:A0 0.000145097
3 *2016:Q 0
4 *380:4 0.000602671
5 *1642:A2 *1642:A3 2.91399e-05
6 *1642:A2 *2041:CLK 7.61174e-06
7 *1642:A2 *407:463 0.000250084
8 *1642:A2 *408:207 0.000116158
9 *1642:A2 *408:216 9.50342e-06
10 *1847:A0 *2008:CLK 9.02174e-05
11 *1847:A0 *456:41 0.00011852
12 *1847:A0 *456:52 0.000206824
13 *1643:A1 *1642:A2 1.60083e-05
14 *1809:S *1847:A0 0.000229362
15 *2041:D *1642:A2 2.97674e-05
16 *269:26 *1847:A0 5.4256e-05
17 *276:117 *1642:A2 0
*RES
1 *2016:Q *380:4 1.6 
2 *380:4 *1847:A0 10.76 
3 *380:4 *1642:A2 12.1925 
*END

*D_NET *381 0.00326269
*CONN
*I *1650:A2 I *D sky130_fd_sc_hd__mux4_1
*I *1848:A0 I *D sky130_fd_sc_hd__mux2_1
*I *2017:Q O *D sky130_fd_sc_hd__dfxtp_1
*CAP
1 *1650:A2 0.000701368
2 *1848:A0 0.000276303
3 *2017:Q 0.000250981
4 *381:10 0.00122865
5 *1650:A2 *1650:A3 0.000427401
6 *1650:A2 *1811:A1 0.000124895
7 *1650:A2 *1848:A1 1.17409e-05
8 *1650:A2 *457:95 1.33293e-05
9 *1848:A0 *1848:A1 0.000100908
10 *381:10 *389:10 0
11 *381:10 *457:95 0
12 *1650:A0 *1650:A2 8.302e-05
13 *1811:S *381:10 0
14 *1848:S *381:10 0
15 *1976:D *381:10 4.40899e-05
*RES
1 *2017:Q *381:10 9.785 
2 *381:10 *1848:A0 5.335 
3 *381:10 *1650:A2 12.6025 
*END

*D_NET *382 0.0033448
*CONN
*I *1658:A2 I *D sky130_fd_sc_hd__mux4_1
*I *1849:A0 I *D sky130_fd_sc_hd__mux2_1
*I *2018:Q O *D sky130_fd_sc_hd__dfxtp_1
*CAP
1 *1658:A2 0.000550346
2 *1849:A0 0.000313482
3 *2018:Q 0
4 *382:4 0.000863829
5 *1658:A2 *1650:S0 2.24968e-05
6 *1658:A2 *1737:S0 0.000114492
7 *1658:A2 *407:336 0.00015829
8 *1658:A2 *427:79 0.000576345
9 *1849:A0 *1849:A1 0.000278111
10 *1658:A1 *1658:A2 0.000243532
11 *1807:S *1849:A0 0.000118279
12 *1839:S *1658:A2 0
13 *1848:S *1849:A0 0
14 *1849:S *1849:A0 2.0514e-05
15 *1977:D *1849:A0 5.72091e-05
16 *269:107 *1849:A0 2.78732e-05
17 *274:61 *1849:A0 0
*RES
1 *2018:Q *382:4 1.6 
2 *382:4 *1849:A0 12.395 
3 *382:4 *1658:A2 15.3988 
*END

*D_NET *383 0.00131747
*CONN
*I *1805:A1 I *D sky130_fd_sc_hd__mux2_1
*I *1721:A3 I *D sky130_fd_sc_hd__mux4_1
*I *1970:Q O *D sky130_fd_sc_hd__dfxtp_1
*CAP
1 *1805:A1 0
2 *1721:A3 0.000137261
3 *1970:Q 0.000104454
4 *383:8 0.000241714
5 *1721:A3 *408:146 8.89884e-05
6 *1721:A3 *451:75 0.000206116
7 *1721:A3 *451:86 0.000136877
8 *1721:A2 *1721:A3 0.000116158
9 *1805:S *383:8 0.000264794
10 *1970:D *383:8 2.11084e-05
*RES
1 *1970:Q *383:8 4.135 
2 *383:8 *1721:A3 9.53 
3 *383:8 *1805:A1 1.6 
*END

*D_NET *384 0.00217624
*CONN
*I *1729:A3 I *D sky130_fd_sc_hd__mux4_1
*I *1806:A1 I *D sky130_fd_sc_hd__mux2_1
*I *1971:Q O *D sky130_fd_sc_hd__dfxtp_1
*CAP
1 *1729:A3 0.000151349
2 *1806:A1 0
3 *1971:Q 0.000346347
4 *384:12 0.000497697
5 *1729:A3 *1806:A0 0.000617297
6 *1729:A3 *407:285 0.000231095
7 *1729:A3 *407:415 0.000123225
8 *384:12 *431:12 7.53903e-05
9 *1806:S *1729:A3 9.53428e-06
10 *1834:A1 *384:12 5.05521e-05
11 *1971:D *384:12 0
12 *269:61 *1729:A3 5.26499e-05
13 *269:77 *1729:A3 2.11084e-05
14 *269:77 *384:12 0
15 *368:10 *384:12 0
*RES
1 *1971:Q *384:12 9.845 
2 *384:12 *1806:A1 1.6 
3 *384:12 *1729:A3 8.05 
*END

*D_NET *385 0.00117394
*CONN
*I *1737:A3 I *D sky130_fd_sc_hd__mux4_1
*I *1807:A1 I *D sky130_fd_sc_hd__mux2_1
*I *1972:Q O *D sky130_fd_sc_hd__dfxtp_1
*CAP
1 *1737:A3 0.000147389
2 *1807:A1 6.03163e-05
3 *1972:Q 0.000124058
4 *385:8 0.000331763
5 *1737:A3 *1737:S0 4.77719e-05
6 *1737:A0 *1737:A3 0.000143258
7 *1737:A0 *385:8 4.77153e-05
8 *1737:A1 *1737:A3 4.66108e-05
9 *1737:A1 *385:8 2.86792e-05
10 *1807:S *1737:A3 2.39856e-05
11 *1807:S *385:8 3.90873e-06
12 *1835:A1 *1737:A3 4.9968e-05
13 *1835:A1 *1807:A1 0.000118513
14 *2013:D *1807:A1 0
*RES
1 *1972:Q *385:8 5.085 
2 *385:8 *1807:A1 4.98 
3 *385:8 *1737:A3 6.735 
*END

*D_NET *386 0.00309826
*CONN
*I *1808:A1 I *D sky130_fd_sc_hd__mux2_1
*I *1745:A3 I *D sky130_fd_sc_hd__mux4_1
*I *1973:Q O *D sky130_fd_sc_hd__dfxtp_1
*CAP
1 *1808:A1 0.000268176
2 *1745:A3 0
3 *1973:Q 0.00043889
4 *386:14 0.000707066
5 *1808:A1 *1744:S0 5.30057e-05
6 *1808:A1 *454:89 0.000232105
7 *1644:B1 *1808:A1 0.000300212
8 *1644:B1 *386:14 0.000296088
9 *1973:D *386:14 9.2741e-05
10 *2039:D *386:14 1.40723e-06
11 *273:46 *1808:A1 0.000179987
12 *273:46 *386:14 0.000296088
13 *276:61 *386:14 7.53268e-05
14 *362:10 *386:14 0.000157172
*RES
1 *1973:Q *386:14 12.765 
2 *386:14 *1745:A3 3.6 
3 *386:14 *1808:A1 9.45 
*END

*D_NET *387 0.00160941
*CONN
*I *1634:A3 I *D sky130_fd_sc_hd__mux4_1
*I *1809:A1 I *D sky130_fd_sc_hd__mux2_1
*I *1974:Q O *D sky130_fd_sc_hd__dfxtp_1
*CAP
1 *1634:A3 0.000202814
2 *1809:A1 0.000167073
3 *1974:Q 0
4 *387:4 0.000369887
5 *1634:A3 *1634:S0 0.000118081
6 *1809:A1 *1738:S 3.18568e-05
7 *1634:A0 *1634:A3 5.27083e-05
8 *1634:A1 *1634:A3 2.49909e-05
9 *253:12 *1809:A1 0.000116165
10 *274:53 *1634:A3 0.000389619
11 *363:12 *1634:A3 1.83847e-05
12 *379:10 *1809:A1 0.000117832
*RES
1 *1974:Q *387:4 1.6 
2 *387:4 *1809:A1 8.465 
3 *387:4 *1634:A3 7.03 
*END

*D_NET *388 0.00148377
*CONN
*I *1642:A3 I *D sky130_fd_sc_hd__mux4_1
*I *1810:A1 I *D sky130_fd_sc_hd__mux2_1
*I *1975:Q O *D sky130_fd_sc_hd__dfxtp_1
*CAP
1 *1642:A3 9.11947e-05
2 *1810:A1 0.000174289
3 *1975:Q 0.000269726
4 *388:12 0.000535209
5 *1642:A3 *407:463 0.000115779
6 *388:12 *407:463 9.86611e-05
7 *388:12 *408:207 0
8 *388:12 *429:46 0
9 *1642:A2 *1642:A3 2.91399e-05
10 *1643:A1 *1642:A3 8.89876e-05
11 *1643:A1 *1810:A1 5.96716e-05
12 *1809:S *388:12 0
13 *269:26 *388:12 2.11084e-05
*RES
1 *1975:Q *388:12 9.725 
2 *388:12 *1810:A1 4.585 
3 *388:12 *1642:A3 4.12 
*END

*D_NET *389 0.00153962
*CONN
*I *1650:A3 I *D sky130_fd_sc_hd__mux4_1
*I *1811:A1 I *D sky130_fd_sc_hd__mux2_1
*I *1976:Q O *D sky130_fd_sc_hd__dfxtp_1
*CAP
1 *1650:A3 0.000122935
2 *1811:A1 5.09675e-05
3 *1976:Q 5.377e-05
4 *389:10 0.000227672
5 *1650:A3 *457:95 2.45351e-05
6 *1811:A1 *457:95 4.65515e-05
7 *389:10 *457:95 1.82476e-05
8 *1650:A0 *1650:A3 7.71277e-05
9 *1650:A2 *1650:A3 0.000427401
10 *1650:A2 *1811:A1 0.000124895
11 *1811:S *389:10 0.000140912
12 *1839:A1 *1650:A3 0.000159845
13 *1839:A1 *1811:A1 0
14 *373:10 *389:10 6.47594e-05
15 *381:10 *389:10 0
*RES
1 *1976:Q *389:10 7.49 
2 *389:10 *1811:A1 3.1 
3 *389:10 *1650:A3 6.31 
*END

*D_NET *390 0.00133874
*CONN
*I *1658:A3 I *D sky130_fd_sc_hd__mux4_1
*I *1812:A1 I *D sky130_fd_sc_hd__mux2_1
*I *1977:Q O *D sky130_fd_sc_hd__dfxtp_1
*CAP
1 *1658:A3 0.000235634
2 *1812:A1 3.9474e-05
3 *1977:Q 8.35259e-05
4 *390:12 0.000358634
5 *1658:A3 *1658:S0 4.77719e-05
6 *1658:A3 *436:133 4.66108e-05
7 *1812:A1 *436:133 8.49205e-05
8 *390:12 *436:133 0.000139933
9 *1658:A1 *1658:A3 0.00017215
10 *1807:S *390:12 0.00011852
11 *269:107 *390:12 1.1561e-05
*RES
1 *1977:Q *390:12 7.685 
2 *390:12 *1812:A1 2.395 
3 *390:12 *1658:A3 6.31 
*END

*D_NET *391 0.0019724
*CONN
*I *1814:A0 I *D sky130_fd_sc_hd__mux2_1
*I *1716:A0 I *D sky130_fd_sc_hd__mux4_1
*I *1978:Q O *D sky130_fd_sc_hd__dfxtp_1
*CAP
1 *1814:A0 9.38823e-05
2 *1716:A0 0.00015641
3 *1978:Q 0.000307525
4 *391:10 0.000557817
5 *1716:A0 *1639:S0 3.72916e-05
6 *1716:A0 *1716:S0 3.09233e-05
7 *1716:A0 *1794:A_N 7.5999e-05
8 *1716:A0 *451:141 0.000137931
9 *1814:A0 *422:18 0
10 *1814:A0 *451:141 7.3579e-05
11 *1814:A0 *451:143 6.64918e-05
12 *391:10 *2091:A 0.000225718
13 *1716:A2 *1716:A0 5.05437e-05
14 *1978:D *1814:A0 0.00015829
15 *263:95 *1716:A0 0
16 *263:95 *1814:A0 0
*RES
1 *1978:Q *391:10 7.605 
2 *391:10 *1716:A0 7.815 
3 *391:10 *1814:A0 6.51 
*END

*D_NET *392 0.00127774
*CONN
*I *1726:A0 I *D sky130_fd_sc_hd__mux4_1
*I *1815:A0 I *D sky130_fd_sc_hd__mux2_1
*I *1979:Q O *D sky130_fd_sc_hd__dfxtp_1
*CAP
1 *1726:A0 0.000113399
2 *1815:A0 0
3 *1979:Q 0.000253448
4 *392:10 0.000366847
5 *1726:A0 *408:30 1.94723e-05
6 *392:10 *408:30 8.23457e-05
7 *392:10 *417:91 4.22057e-05
8 *1727:A2 *1726:A0 6.31674e-05
9 *1727:A2 *392:10 8.39945e-05
10 *1913:D *1726:A0 9.16237e-05
11 *1913:D *392:10 7.63204e-05
12 *1979:D *392:10 8.49205e-05
*RES
1 *1979:Q *392:10 7.755 
2 *392:10 *1815:A0 3.6 
3 *392:10 *1726:A0 6.39 
*END

*D_NET *393 0.00290282
*CONN
*I *1816:A0 I *D sky130_fd_sc_hd__mux2_1
*I *1732:A0 I *D sky130_fd_sc_hd__mux4_1
*I *1980:Q O *D sky130_fd_sc_hd__dfxtp_1
*CAP
1 *1816:A0 0.000825196
2 *1732:A0 0
3 *1980:Q 0.00013554
4 *393:10 0.000960736
5 *1816:A0 *1637:S0 1.70935e-05
6 *1816:A0 *401:12 3.76596e-05
7 *1816:A0 *407:89 0
8 *1816:A0 *408:431 6.66066e-05
9 *1816:A0 *408:433 5.81172e-05
10 *393:10 *1637:S0 7.09999e-05
11 *393:10 *401:12 5.53249e-06
12 *393:10 *433:93 0.000120655
13 *1732:A2 *1816:A0 1.38238e-05
14 *1732:A3 *1816:A0 0.000128035
15 *270:34 *1816:A0 0.000462829
16 *297:8 *393:10 0
*RES
1 *1980:Q *393:10 6.375 
2 *393:10 *1732:A0 3.6 
3 *393:10 *1816:A0 16.08 
*END

*D_NET *394 0.00234631
*CONN
*I *1817:A0 I *D sky130_fd_sc_hd__mux2_1
*I *1740:A0 I *D sky130_fd_sc_hd__mux4_1
*I *1981:Q O *D sky130_fd_sc_hd__dfxtp_1
*CAP
1 *1817:A0 0.000479924
2 *1740:A0 0.000180405
3 *1981:Q 9.88442e-05
4 *394:6 0.000759173
5 *1740:A0 *407:167 0
6 *1817:A0 *1740:S1 0.000272984
7 *1817:A0 *1817:A1 0.000433972
8 *1817:A0 *1963:CLK 8.40269e-05
9 *1740:A2 *1817:A0 2.15025e-05
10 *1740:A2 *394:6 1.54837e-05
11 *1798:A0 *1740:A0 0
*RES
1 *1981:Q *394:6 2.74 
2 *394:6 *1740:A0 8.255 
3 *394:6 *1817:A0 10.48 
*END

*D_NET *395 0.00141081
*CONN
*I *1818:A0 I *D sky130_fd_sc_hd__mux2_1
*I *1631:A0 I *D sky130_fd_sc_hd__mux4_1
*I *1982:Q O *D sky130_fd_sc_hd__dfxtp_1
*CAP
1 *1818:A0 0.000157039
2 *1631:A0 0
3 *1982:Q 0.00016247
4 *395:10 0.000319509
5 *1818:A0 *1754:A1 8.7974e-05
6 *1818:A0 *407:89 0
7 *1818:A0 *455:169 0.000307429
8 *395:10 *1754:A1 4.43871e-06
9 *395:10 *407:89 0
10 *1631:A2 *395:10 8.8266e-05
11 *1754:S *1818:A0 0.000271694
12 *1898:D *395:10 0
13 *1982:D *1818:A0 1.19928e-05
14 *262:115 *1818:A0 0
15 *266:71 *1818:A0 0
16 *266:71 *395:10 0
*RES
1 *1982:Q *395:10 6.03 
2 *395:10 *1631:A0 3.6 
3 *395:10 *1818:A0 8.61 
*END

*D_NET *396 0.00165922
*CONN
*I *1819:A0 I *D sky130_fd_sc_hd__mux2_1
*I *1637:A0 I *D sky130_fd_sc_hd__mux4_1
*I *1983:Q O *D sky130_fd_sc_hd__dfxtp_1
*CAP
1 *1819:A0 0.000149846
2 *1637:A0 6.16426e-05
3 *1983:Q 0.000161679
4 *396:14 0.000373168
5 *1637:A0 *1637:A1 0.00011314
6 *1637:A0 *1637:S0 4.66108e-05
7 *1819:A0 *1637:S0 8.26614e-05
8 *1819:A0 *456:134 0.000270713
9 *396:14 *1637:S0 2.42802e-05
10 *1637:A2 *1637:A0 9.09106e-05
11 *1637:A3 *1819:A0 0.000143054
12 *1983:D *1819:A0 0.000121019
13 *2069:A *396:14 2.04902e-05
14 *300:10 *396:14 0
*RES
1 *1983:Q *396:14 5.985 
2 *396:14 *1637:A0 5.775 
3 *396:14 *1819:A0 8.01 
*END

*D_NET *397 0.000851456
*CONN
*I *1820:A0 I *D sky130_fd_sc_hd__mux2_1
*I *1647:A0 I *D sky130_fd_sc_hd__mux4_1
*I *1984:Q O *D sky130_fd_sc_hd__dfxtp_1
*CAP
1 *1820:A0 0.000144245
2 *1647:A0 1.58383e-05
3 *1984:Q 0.000114852
4 *397:10 0.000274935
5 *1647:A0 *1647:A1 4.66108e-05
6 *1647:A0 *1647:S0 3.00355e-05
7 *1820:A0 *1647:A1 0
8 *1820:A0 *1957:CLK 0
9 *397:10 *1957:CLK 0
10 *397:10 *421:18 4.82919e-05
11 *1957:D *1820:A0 0
12 *1984:D *1820:A0 0
13 *266:53 *1820:A0 4.14369e-05
14 *266:53 *397:10 0.00013521
*RES
1 *1984:Q *397:10 5.685 
2 *397:10 *1647:A0 4.05 
3 *397:10 *1820:A0 5.745 
*END

*D_NET *398 0.00209119
*CONN
*I *1821:A0 I *D sky130_fd_sc_hd__mux2_1
*I *1653:A0 I *D sky130_fd_sc_hd__mux4_1
*I *1985:Q O *D sky130_fd_sc_hd__dfxtp_1
*CAP
1 *1821:A0 0.000591303
2 *1653:A0 0.000272778
3 *1985:Q 0
4 *398:4 0.000864081
5 *1653:A0 *436:21 0
6 *1821:A0 *1968:CLK 7.63204e-05
7 *1821:A0 *420:121 0.000103823
8 *1821:A0 *436:48 0.000136884
9 *1653:A2 *1653:A0 9.50342e-06
10 *1653:A3 *1653:A0 3.06697e-05
11 *1821:S *1821:A0 5.83121e-06
*RES
1 *1985:Q *398:4 1.6 
2 *398:4 *1653:A0 9.155 
3 *398:4 *1821:A0 13.205 
*END

*D_NET *399 0.00177052
*CONN
*I *1716:A1 I *D sky130_fd_sc_hd__mux4_1
*I *1750:A1 I *D sky130_fd_sc_hd__mux2_1
*I *1894:Q O *D sky130_fd_sc_hd__dfxtp_1
*CAP
1 *1716:A1 0.000227011
2 *1750:A1 0
3 *1894:Q 0.00040288
4 *399:10 0.000629891
5 *1716:A1 *1750:A0 0.000106655
6 *1716:A1 *1794:A_N 0.00018305
7 *1716:A1 *407:265 0
8 *399:10 *1750:A0 9.50342e-06
9 *399:10 *407:265 0
10 *1894:D *399:10 0
11 *1954:D *1716:A1 0.00013521
12 *267:14 *1716:A1 7.63204e-05
*RES
1 *1894:Q *399:10 9.27 
2 *399:10 *1750:A1 3.6 
3 *399:10 *1716:A1 9.06 
*END

*D_NET *400 0.00208624
*CONN
*I *1751:A1 I *D sky130_fd_sc_hd__mux2_1
*I *1726:A1 I *D sky130_fd_sc_hd__mux4_1
*I *1895:Q O *D sky130_fd_sc_hd__dfxtp_1
*CAP
1 *1751:A1 0.000276046
2 *1726:A1 0.000143957
3 *1895:Q 0.000403002
4 *400:10 0.000823005
5 *1726:A1 *1913:CLK 0
6 *1726:A1 *452:10 0
7 *1751:A1 *1751:A0 4.82863e-05
8 *400:10 *2120:A 0
9 *400:10 *452:10 0
10 *1895:D *1751:A1 0.00011551
11 *1895:D *400:10 0
12 *1913:D *1726:A1 0.000186099
13 *1913:D *1751:A1 9.03376e-05
*RES
1 *1895:Q *400:10 8.28 
2 *400:10 *1726:A1 6.45 
3 *400:10 *1751:A1 8.565 
*END

*D_NET *401 0.00145213
*CONN
*I *1732:A1 I *D sky130_fd_sc_hd__mux4_1
*I *1752:A1 I *D sky130_fd_sc_hd__mux2_1
*I *1896:Q O *D sky130_fd_sc_hd__dfxtp_1
*CAP
1 *1732:A1 0
2 *1752:A1 0.000243716
3 *1896:Q 0.00015068
4 *401:12 0.000394395
5 *1752:A1 *1637:S0 0.000204998
6 *1752:A1 *1732:S0 8.30853e-06
7 *401:12 *407:89 0
8 *1732:A2 *1752:A1 0.00019637
9 *1732:A3 *1752:A1 0.000153253
10 *1788:A1 *401:12 4.49498e-05
11 *1816:A0 *401:12 3.76596e-05
12 *297:8 *401:12 1.22676e-05
13 *393:10 *401:12 5.53249e-06
*RES
1 *1896:Q *401:12 8.03 
2 *401:12 *1752:A1 11.51 
3 *401:12 *1732:A1 1.6 
*END

*D_NET *402 0.00185139
*CONN
*I *1753:A1 I *D sky130_fd_sc_hd__mux2_1
*I *1740:A1 I *D sky130_fd_sc_hd__mux4_1
*I *1897:Q O *D sky130_fd_sc_hd__dfxtp_1
*CAP
1 *1753:A1 6.25116e-05
2 *1740:A1 0.000134766
3 *1897:Q 0.000290412
4 *402:10 0.000487689
5 *1740:A1 *407:167 0
6 *1740:A1 *454:12 0
7 *402:10 *454:10 0
8 *1756:S *1753:A1 0.000387896
9 *1756:S *402:10 3.45588e-05
10 *1789:A1 *1740:A1 0
11 *1789:A1 *1753:A1 2.0514e-05
12 *1820:S *1740:A1 3.09164e-05
13 *1820:S *1753:A1 0.000352161
14 *1820:S *402:10 4.9968e-05
15 *1897:D *402:10 0
16 *1957:D *1740:A1 0
17 *1957:D *402:10 0
*RES
1 *1897:Q *402:10 7.41 
2 *402:10 *1740:A1 5.49 
3 *402:10 *1753:A1 7.155 
*END

*D_NET *403 0.000429922
*CONN
*I *1631:A1 I *D sky130_fd_sc_hd__mux4_1
*I *1754:A1 I *D sky130_fd_sc_hd__mux2_1
*I *1898:Q O *D sky130_fd_sc_hd__dfxtp_1
*CAP
1 *1631:A1 0
2 *1754:A1 9.11935e-05
3 *1898:Q 5.89153e-05
4 *403:8 0.000150109
5 *1631:A3 *403:8 3.72916e-05
6 *1818:A0 *1754:A1 8.7974e-05
7 *1898:D *1754:A1 0
8 *266:71 *1754:A1 0
9 *395:10 *1754:A1 4.43871e-06
*RES
1 *1898:Q *403:8 2.755 
2 *403:8 *1754:A1 7.49 
3 *403:8 *1631:A1 1.6 
*END

*D_NET *404 0.00242984
*CONN
*I *1637:A1 I *D sky130_fd_sc_hd__mux4_1
*I *1755:A1 I *D sky130_fd_sc_hd__mux2_1
*I *1899:Q O *D sky130_fd_sc_hd__dfxtp_1
*CAP
1 *1637:A1 0.000543774
2 *1755:A1 0.000177517
3 *1899:Q 5.82533e-05
4 *404:8 0.000779543
5 *1637:A1 *1637:S0 4.82863e-05
6 *1637:A1 *1755:A0 4.65643e-05
7 *1755:A1 *1755:A0 0.000300954
8 *404:8 *433:16 8.52845e-05
9 *1637:A0 *1637:A1 0.00011314
10 *1637:A2 *1637:A1 2.89214e-05
11 *1755:S *1755:A1 8.52845e-05
12 *1899:D *1755:A1 0
13 *1983:D *1637:A1 0.000162318
*RES
1 *1899:Q *404:8 4.395 
2 *404:8 *1755:A1 7.995 
3 *404:8 *1637:A1 11.715 
*END

*D_NET *405 0.00129581
*CONN
*I *1756:A1 I *D sky130_fd_sc_hd__mux2_1
*I *1647:A1 I *D sky130_fd_sc_hd__mux4_1
*I *1900:Q O *D sky130_fd_sc_hd__dfxtp_1
*CAP
1 *1756:A1 0.000180911
2 *1647:A1 0.000253196
3 *1900:Q 0
4 *405:6 0.000434107
5 *1647:A1 *1647:S0 0.000157421
6 *1647:A1 *1756:A0 0
7 *1756:A1 *1756:A0 0
8 *1647:A0 *1647:A1 4.66108e-05
9 *1756:S *1756:A1 3.45588e-05
10 *1820:A0 *1647:A1 0
11 *1984:D *1647:A1 9.54469e-05
12 *266:53 *1647:A1 9.35611e-05
*RES
1 *1900:Q *405:6 3.6 
2 *405:6 *1647:A1 8.535 
3 *405:6 *1756:A1 5.955 
*END

*D_NET *406 0.000973567
*CONN
*I *1757:A1 I *D sky130_fd_sc_hd__mux2_1
*I *1653:A1 I *D sky130_fd_sc_hd__mux4_1
*I *1901:Q O *D sky130_fd_sc_hd__dfxtp_1
*CAP
1 *1757:A1 0.000356528
2 *1653:A1 3.55506e-05
3 *1901:Q 4.08925e-05
4 *406:6 0.000432972
5 *1653:A2 *1757:A1 0.000107624
*RES
1 *1901:Q *406:6 2.05 
2 *406:6 *1653:A1 2.215 
3 *406:6 *1757:A1 10.025 
*END

*D_NET *407 0.0829362
*CONN
*I *1685:B I *D sky130_fd_sc_hd__and3_1
*I *1686:A1 I *D sky130_fd_sc_hd__a21oi_1
*I *1683:A I *D sky130_fd_sc_hd__nor2_1
*I *1682:A I *D sky130_fd_sc_hd__and2_1
*I *1718:S0 I *D sky130_fd_sc_hd__mux4_1
*I *1716:S0 I *D sky130_fd_sc_hd__mux4_1
*I *1729:S0 I *D sky130_fd_sc_hd__mux4_1
*I *1728:S0 I *D sky130_fd_sc_hd__mux4_1
*I *1721:S0 I *D sky130_fd_sc_hd__mux4_1
*I *1720:S0 I *D sky130_fd_sc_hd__mux4_1
*I *1641:S0 I *D sky130_fd_sc_hd__mux4_1
*I *1642:S0 I *D sky130_fd_sc_hd__mux4_1
*I *1633:S0 I *D sky130_fd_sc_hd__mux4_1
*I *1634:S0 I *D sky130_fd_sc_hd__mux4_1
*I *1736:S0 I *D sky130_fd_sc_hd__mux4_1
*I *1744:S0 I *D sky130_fd_sc_hd__mux4_1
*I *1745:S0 I *D sky130_fd_sc_hd__mux4_1
*I *1734:S0 I *D sky130_fd_sc_hd__mux4_1
*I *1649:S0 I *D sky130_fd_sc_hd__mux4_1
*I *1657:S0 I *D sky130_fd_sc_hd__mux4_1
*I *1650:S0 I *D sky130_fd_sc_hd__mux4_1
*I *1658:S0 I *D sky130_fd_sc_hd__mux4_1
*I *1737:S0 I *D sky130_fd_sc_hd__mux4_1
*I *1639:S0 I *D sky130_fd_sc_hd__mux4_1
*I *1726:S0 I *D sky130_fd_sc_hd__mux4_1
*I *1742:S0 I *D sky130_fd_sc_hd__mux4_1
*I *1629:S0 I *D sky130_fd_sc_hd__mux4_1
*I *1740:S0 I *D sky130_fd_sc_hd__mux4_1
*I *1647:S0 I *D sky130_fd_sc_hd__mux4_1
*I *1645:S0 I *D sky130_fd_sc_hd__mux4_1
*I *1655:S0 I *D sky130_fd_sc_hd__mux4_1
*I *1653:S0 I *D sky130_fd_sc_hd__mux4_1
*I *1631:S0 I *D sky130_fd_sc_hd__mux4_1
*I *1732:S0 I *D sky130_fd_sc_hd__mux4_1
*I *1637:S0 I *D sky130_fd_sc_hd__mux4_1
*I *1724:S0 I *D sky130_fd_sc_hd__mux4_1
*I *2027:Q O *D sky130_fd_sc_hd__dfrtp_4
*CAP
1 *1685:B 0.000159474
2 *1686:A1 0.000117922
3 *1683:A 0.000123243
4 *1682:A 0
5 *1718:S0 7.94798e-05
6 *1716:S0 5.29992e-05
7 *1729:S0 0
8 *1728:S0 0.000478646
9 *1721:S0 2.74059e-05
10 *1720:S0 0.000696959
11 *1641:S0 0.000434373
12 *1642:S0 3.69402e-05
13 *1633:S0 0.00046556
14 *1634:S0 0.000140837
15 *1736:S0 0.000817867
16 *1744:S0 0.000295665
17 *1745:S0 4.32884e-05
18 *1734:S0 0.000317173
19 *1649:S0 1.83028e-05
20 *1657:S0 0
21 *1650:S0 0.000638219
22 *1658:S0 1.03618e-05
23 *1737:S0 0.000793263
24 *1639:S0 0.00109711
25 *1726:S0 0.000596717
26 *1742:S0 0
27 *1629:S0 0.000521251
28 *1740:S0 1.8475e-05
29 *1647:S0 0.000511842
30 *1645:S0 0
31 *1655:S0 0.000281702
32 *1653:S0 0.00056199
33 *1631:S0 0
34 *1732:S0 3.41079e-05
35 *1637:S0 0.000510357
36 *1724:S0 0
37 *2027:Q 0
38 *407:624 0.000362936
39 *407:611 0.000380477
40 *407:523 0.00166159
41 *407:517 0.000617789
42 *407:467 0.00139208
43 *407:463 0.00167463
44 *407:449 0.00141792
45 *407:439 0.00122321
46 *407:427 0.00172856
47 *407:415 0.000718073
48 *407:373 0.000634969
49 *407:336 0.000733351
50 *407:311 0.0015658
51 *407:295 0.000832132
52 *407:293 0.00180465
53 *407:289 0.00161738
54 *407:285 0.00115971
55 *407:265 0.00188932
56 *407:261 0.00126561
57 *407:248 0.00184916
58 *407:234 0.00108219
59 *407:167 0.0010882
60 *407:89 0.00119774
61 *407:75 0.00078983
62 *407:71 0.00152029
63 *407:69 0.0014978
64 *407:61 0.001247
65 *407:57 0.0017777
66 *407:55 0.00100276
67 *407:51 0.00122341
68 *407:20 0.00110907
69 *407:18 0.000826271
70 *407:12 0.000766753
71 *407:6 0.000377679
72 *407:4 0.000262836
73 *1629:S0 *410:49 4.71151e-05
74 *1629:S0 *410:53 4.62396e-05
75 *1629:S0 *410:57 0
76 *1633:S0 *1634:S1 0
77 *1633:S0 *408:158 0
78 *1633:S0 *426:83 4.49498e-05
79 *1633:S0 *456:41 0
80 *1637:S0 *1637:S1 0
81 *1647:S0 *1789:A0 0.000315484
82 *1650:S0 *1650:S1 0
83 *1650:S0 *436:133 0
84 *1650:S0 *457:95 0
85 *1653:S0 *1653:S1 4.58791e-05
86 *1653:S0 *1982:CLK 0
87 *1653:S0 *420:12 0.000186099
88 *1653:S0 *420:121 0.000174512
89 *1655:S0 *408:484 0
90 *1683:A *1688:A 9.24049e-05
91 *1683:A *2032:D 4.99619e-05
92 *1685:B *1688:A 3.39981e-05
93 *1685:B *408:570 0
94 *1685:B *408:574 0.0003175
95 *1685:B *409:16 3.24046e-05
96 *1686:A1 *1686:B1 5.05521e-05
97 *1716:S0 *1794:A_N 0
98 *1716:S0 *451:141 9.84957e-05
99 *1720:S0 *451:44 1.79536e-05
100 *1726:S0 *1719:B1 0
101 *1726:S0 *1727:A1 0.00011852
102 *1726:S0 *1727:B1 0
103 *1726:S0 *1742:S1 0.000193113
104 *1726:S0 *1778:A1 0.000123225
105 *1726:S0 *1913:CLK 0.000102199
106 *1726:S0 *1939:CLK 4.21314e-05
107 *1726:S0 *2094:A 0.000156758
108 *1726:S0 *408:70 0.000120655
109 *1726:S0 *410:24 0
110 *1726:S0 *417:87 1.7379e-05
111 *1726:S0 *425:44 0.000113373
112 *1726:S0 *452:14 0.000103192
113 *1726:S0 *452:16 0.000269249
114 *1726:S0 *452:20 8.68097e-06
115 *1728:S0 *408:142 0.000321186
116 *1734:S0 *416:22 0.00057246
117 *1734:S0 *416:66 0.000613962
118 *1734:S0 *436:77 0.000877287
119 *1736:S0 *1736:S1 6.624e-05
120 *1736:S0 *426:32 1.44177e-05
121 *1736:S0 *455:20 3.9874e-05
122 *1736:S0 *455:31 8.93112e-05
123 *1736:S0 *455:42 0.00011562
124 *1736:S0 *455:55 7.90356e-06
125 *1737:S0 *1840:A0 0
126 *1737:S0 *453:70 0.000138985
127 *1740:S0 *1789:A0 1.19928e-05
128 *1745:S0 *454:53 4.9968e-05
129 *407:12 *1769:A0 1.60203e-05
130 *407:18 *1939:CLK 0.00018471
131 *407:51 *1780:A1 0.000114914
132 *407:51 *1947:CLK 4.66108e-05
133 *407:51 *410:49 0.000106829
134 *407:51 *452:150 0.000202721
135 *407:61 *1933:CLK 6.00111e-05
136 *407:61 *2073:A 3.57474e-05
137 *407:61 *421:10 6.58339e-05
138 *407:69 *408:484 0.00010727
139 *407:71 *1631:S1 9.0009e-05
140 *407:167 *454:12 6.68849e-05
141 *407:167 *454:14 0.000106648
142 *407:167 *454:16 0.000241397
143 *407:167 *454:20 0.00030403
144 *407:234 *409:52 0.000158998
145 *407:234 *452:22 9.95272e-05
146 *407:234 *452:32 0.000266412
147 *407:248 *1716:S1 3.45679e-05
148 *407:248 *408:117 0.000112852
149 *407:248 *409:52 0.000261642
150 *407:248 *412:182 0
151 *407:265 *1794:A_N 0
152 *407:265 *1804:A 0
153 *407:265 *1841:C 0
154 *407:265 *411:76 0
155 *407:265 *411:94 0
156 *407:265 *411:111 0
157 *407:265 *416:96 0
158 *407:265 *451:141 0.000266618
159 *407:285 *1745:S1 3.1835e-05
160 *407:285 *408:216 4.20983e-05
161 *407:285 *408:239 1.97849e-05
162 *407:289 *1745:S1 5.83121e-06
163 *407:293 *2051:CLK 4.80182e-05
164 *407:293 *2097:A 1.83847e-05
165 *407:295 *416:45 0
166 *407:311 *2026:CLK 8.23457e-05
167 *407:311 *416:45 0
168 *407:311 *436:133 0.000115816
169 *407:373 *2080:A 3.04396e-05
170 *407:373 *416:22 0.000504659
171 *407:373 *416:45 0
172 *407:373 *436:77 0.000482274
173 *407:427 *2037:CLK 1.56428e-05
174 *407:439 *430:67 5.94827e-05
175 *407:449 *2082:A 0.000619587
176 *407:449 *429:10 4.72308e-05
177 *407:463 *2016:CLK 3.54025e-05
178 *407:463 *2041:CLK 2.11084e-05
179 *407:463 *408:207 8.53167e-05
180 *407:463 *408:216 3.57846e-05
181 *407:467 *2016:CLK 2.95031e-05
182 *407:624 *1688:A 8.0005e-05
183 *1631:A2 *407:71 2.57121e-05
184 *1631:A2 *407:75 4.66826e-05
185 *1631:A2 *407:89 0.000156474
186 *1631:A3 *407:75 3.1562e-06
187 *1632:A2 *407:69 0.000114024
188 *1632:A2 *407:71 0.000802439
189 *1633:A3 *1633:S0 3.05295e-05
190 *1634:A0 *1634:S0 4.23703e-05
191 *1634:A3 *1634:S0 0.000118081
192 *1635:A0 *1633:S0 0
193 *1636:B2 *1629:S0 0.000231564
194 *1637:A0 *1637:S0 4.66108e-05
195 *1637:A1 *1637:S0 4.82863e-05
196 *1639:A2 *1639:S0 7.96711e-05
197 *1642:A1 *1642:S0 3.26889e-05
198 *1642:A1 *407:449 0.000111901
199 *1642:A2 *407:463 0.000250084
200 *1642:A3 *407:463 0.000115779
201 *1643:A1 *1642:S0 2.11084e-05
202 *1643:A1 *407:449 3.52139e-06
203 *1643:A1 *407:463 1.36454e-05
204 *1644:B1 *1744:S0 0
205 *1645:A2 *407:69 0
206 *1645:A3 *407:61 3.26889e-05
207 *1646:A *407:167 0
208 *1647:A0 *1647:S0 3.00355e-05
209 *1647:A1 *1647:S0 0.000157421
210 *1647:A3 *1647:S0 0
211 *1648:A2 *1647:S0 1.83756e-05
212 *1649:A2 *1649:S0 1.56428e-05
213 *1649:A3 *1649:S0 4.66108e-05
214 *1652:B1 *407:69 0
215 *1653:A2 *1653:S0 9.71546e-05
216 *1657:A2 *407:293 1.83463e-05
217 *1657:A2 *407:295 0
218 *1658:A1 *1658:S0 4.77153e-05
219 *1658:A1 *1737:S0 6.18754e-05
220 *1658:A2 *1650:S0 2.24968e-05
221 *1658:A2 *1737:S0 0.000114492
222 *1658:A2 *407:336 0.00015829
223 *1658:A3 *1658:S0 4.77719e-05
224 *1682:B *407:6 0.0001249
225 *1682:B *407:611 0.00021088
226 *1684:A *1685:B 1.22762e-05
227 *1684:A *1686:A1 4.82919e-05
228 *1684:A *407:624 2.46089e-05
229 *1685:C *1685:B 0
230 *1687:B *1685:B 2.68721e-05
231 *1688:B *1683:A 0.0001249
232 *1716:A0 *1639:S0 3.72916e-05
233 *1716:A0 *1716:S0 3.09233e-05
234 *1716:A1 *407:265 0
235 *1716:A2 *1639:S0 4.11668e-05
236 *1716:A2 *1716:S0 8.40269e-05
237 *1716:A2 *407:248 1.1963e-05
238 *1716:A3 *407:248 2.76356e-05
239 *1717:B *407:248 9.91733e-05
240 *1719:A2 *1718:S0 5.18486e-05
241 *1719:A2 *407:234 4.9968e-05
242 *1719:A2 *407:248 0.000163284
243 *1721:A0 *1721:S0 3.57349e-05
244 *1721:A0 *407:449 4.99619e-05
245 *1721:A0 *407:517 0.000113237
246 *1721:A1 *407:439 0.000110215
247 *1721:A1 *407:523 0
248 *1722:A0 *1720:S0 1.92979e-05
249 *1723:B1 *407:427 9.84957e-05
250 *1723:B1 *407:439 0.000202088
251 *1723:B2 *407:248 0.000150623
252 *1724:A0 *1726:S0 3.34788e-05
253 *1724:A2 *407:51 2.62017e-05
254 *1728:A2 *1728:S0 1.54111e-05
255 *1729:A2 *407:427 0
256 *1729:A3 *407:285 0.000231095
257 *1729:A3 *407:415 0.000123225
258 *1731:A1 *1685:B 7.21296e-06
259 *1732:A2 *1732:S0 4.86604e-05
260 *1732:A3 *1732:S0 4.77757e-05
261 *1736:A1 *1736:S0 9.27764e-05
262 *1737:A0 *1737:S0 4.89295e-05
263 *1737:A3 *1737:S0 4.77719e-05
264 *1740:A0 *407:167 0
265 *1740:A1 *407:167 0
266 *1742:A1 *1629:S0 8.53113e-06
267 *1742:A1 *407:55 0.000198051
268 *1742:A2 *407:55 0.000262865
269 *1742:A2 *407:57 6.04626e-05
270 *1745:A2 *1745:S0 4.66108e-05
271 *1745:A2 *407:289 0.000137182
272 *1745:A2 *407:293 0.00033764
273 *1746:A1 *1744:S0 0.000660128
274 *1746:A1 *407:285 3.16418e-05
275 *1752:A1 *1637:S0 0.000204998
276 *1752:A1 *1732:S0 8.30853e-06
277 *1757:S *1653:S0 0.000665545
278 *1762:A0 *407:57 2.15067e-05
279 *1765:S *1655:S0 0
280 *1769:A1 *407:12 1.16578e-05
281 *1769:A1 *407:18 9.86509e-05
282 *1769:S *407:12 0.000119756
283 *1772:A1 *1629:S0 8.53113e-06
284 *1774:S *407:51 0.000204901
285 *1774:S *407:167 1.92187e-05
286 *1786:A1 *407:265 1.73877e-05
287 *1789:S *1647:S0 3.54536e-05
288 *1791:S *1637:S0 0
289 *1795:A0 *1639:S0 2.68506e-05
290 *1797:S *1637:S0 0
291 *1798:A0 *407:167 0
292 *1806:S *407:285 0
293 *1807:S *1737:S0 4.04073e-05
294 *1808:A1 *1744:S0 5.30057e-05
295 *1809:S *407:463 0
296 *1816:A0 *1637:S0 1.70935e-05
297 *1816:A0 *407:89 0
298 *1818:A0 *407:89 0
299 *1819:A0 *1637:S0 8.26614e-05
300 *1826:S *1634:S0 0
301 *1826:S *1736:S0 0
302 *1833:A1 *407:439 0.000130065
303 *1833:S *407:427 3.85797e-05
304 *1833:S *407:439 3.69251e-05
305 *1834:A1 *407:265 0
306 *1837:A1 *1634:S0 1.22762e-05
307 *1840:A1 *1737:S0 0
308 *1842:S *407:439 0.00011852
309 *1844:A0 *1737:S0 0.000141434
310 *1855:A1 *1736:S0 1.82667e-05
311 *1855:S *1736:S0 4.9968e-05
312 *1860:S *1728:S0 0.000345347
313 *1860:S *407:427 2.37023e-05
314 *1862:S *1737:S0 0
315 *1867:A0 *407:311 0.000185709
316 *1871:S *407:295 0.000141539
317 *1871:S *407:311 8.80869e-05
318 *1876:A1 *407:295 8.53113e-06
319 *1876:A1 *407:373 0.000109989
320 *1878:A1 *407:234 7.70938e-05
321 *1894:D *407:265 0
322 *1896:D *407:89 0.000135792
323 *1916:D *1629:S0 0
324 *1916:D *407:51 8.71001e-05
325 *1931:D *407:51 3.55931e-05
326 *1933:D *407:61 4.53486e-05
327 *1933:D *407:167 5.21046e-05
328 *1941:D *1629:S0 0
329 *1948:D *1734:S0 0.000288302
330 *1949:D *407:51 0.000302541
331 *1962:D *1639:S0 0.000184329
332 *1975:D *1633:S0 0
333 *1979:D *1726:S0 4.94404e-05
334 *1982:D *1653:S0 7.06865e-05
335 *1985:D *1653:S0 0
336 *1990:D *1633:S0 0.000141606
337 *2003:D *407:439 0
338 *2004:D *407:265 0.000113797
339 *2004:D *407:427 0
340 *2006:D *1745:S0 2.78732e-05
341 *2007:D *1634:S0 0
342 *2009:D *1650:S0 0.000406764
343 *2010:D *1737:S0 2.16389e-05
344 *2016:D *407:463 3.64998e-06
345 *2016:D *407:467 6.85082e-05
346 *2026:D *407:311 0.000240991
347 *2037:D *407:427 3.99855e-05
348 *2040:D *1634:S0 0.000250616
349 *2040:D *1736:S0 0.000247567
350 *2042:D *1650:S0 0.00030164
351 *2043:D *407:311 8.7774e-05
352 *2051:D *407:293 4.39534e-05
353 *2051:D *407:295 0
354 *2051:D *407:373 0
355 *2061:D *407:439 0.000124151
356 *29:12 *407:51 0.000222921
357 *164:34 *407:167 0.000301719
358 *164:73 *1629:S0 0
359 *176:14 *1629:S0 0.000309169
360 *216:22 *1683:A 0
361 *216:37 *1685:B 0
362 *216:37 *407:624 0
363 *220:8 *1685:B 8.53255e-05
364 *231:24 *1718:S0 4.66108e-05
365 *231:24 *407:234 0.000181369
366 *262:28 *407:234 0.000129969
367 *262:115 *1653:S0 0.000114492
368 *262:115 *407:89 0.000551127
369 *263:32 *1639:S0 0.00034936
370 *263:55 *1655:S0 0
371 *263:110 *407:51 0.000198934
372 *266:19 *1726:S0 0.000155247
373 *266:19 *407:18 0.000249935
374 *266:19 *407:248 0.000592427
375 *266:35 *1647:S0 0.000142233
376 *266:35 *1740:S0 2.49909e-05
377 *266:53 *1647:S0 0.000231655
378 *267:71 *407:51 7.54419e-05
379 *267:87 *407:167 0
380 *269:8 *407:265 0
381 *269:8 *407:427 0
382 *269:12 *407:439 0
383 *269:12 *407:523 0
384 *269:61 *407:285 0.000155957
385 *269:61 *407:415 4.58166e-05
386 *269:77 *407:285 0.000279787
387 *270:16 *407:248 7.89641e-05
388 *270:91 *407:18 3.68705e-05
389 *272:84 *1744:S0 0.000128909
390 *273:8 *407:265 0
391 *273:12 *407:265 0
392 *273:46 *1744:S0 5.38986e-05
393 *273:46 *407:285 6.81892e-05
394 *274:20 *407:439 4.11281e-05
395 *275:34 *1641:S0 4.35348e-05
396 *275:34 *1720:S0 4.41506e-05
397 *275:44 *1641:S0 0.000529504
398 *276:22 *407:427 1.55065e-05
399 *276:61 *407:311 0.000310885
400 *277:38 *407:373 2.67398e-05
401 *278:94 *407:439 0.00011379
402 *278:102 *1720:S0 1.93834e-05
403 *278:102 *407:439 0
404 *278:102 *407:523 0.000951421
405 *300:10 *1637:S0 0
406 *304:12 *1685:B 0.000164679
407 *309:14 *407:69 0
408 *315:10 *1629:S0 5.13487e-05
409 *318:10 *1655:S0 0
410 *320:6 *407:51 3.52139e-06
411 *355:10 *1736:S0 1.07797e-05
412 *368:10 *407:285 0
413 *369:10 *1737:S0 2.75145e-05
414 *371:10 *1634:S0 4.49498e-05
415 *371:10 *407:467 2.05573e-05
416 *373:10 *1650:S0 0
417 *377:10 *1737:S0 1.67904e-05
418 *388:12 *407:463 9.86611e-05
419 *393:10 *1637:S0 7.09999e-05
420 *395:10 *407:89 0
421 *396:14 *1637:S0 2.42802e-05
422 *399:10 *407:265 0
423 *401:12 *407:89 0
*RES
1 *2027:Q *407:4 1.6 
2 *407:4 *407:6 1.83 
3 *407:6 *407:12 4.275 
4 *407:12 *407:18 6.74 
5 *407:18 *407:20 2 
6 *407:20 *1724:S0 1.6 
7 *407:20 *407:51 26.81 
8 *407:51 *407:55 3.225 
9 *407:55 *407:57 4.245 
10 *407:57 *407:61 9.78 
11 *407:61 *407:69 10.345 
12 *407:69 *407:71 10.8 
13 *407:71 *407:75 1.755 
14 *407:75 *407:89 15.245 
15 *407:89 *1637:S0 13.62 
16 *407:89 *1732:S0 4.665 
17 *407:75 *1631:S0 1.6 
18 *407:71 *1653:S0 17.855 
19 *407:69 *1655:S0 10.04 
20 *407:61 *1645:S0 1.6 
21 *407:57 *407:167 20.525 
22 *407:167 *1647:S0 13.705 
23 *407:167 *1740:S0 2.05 
24 *407:55 *1629:S0 16.04 
25 *407:51 *1742:S0 1.6 
26 *407:18 *1726:S0 23.26 
27 *407:12 *407:234 10.265 
28 *407:234 *407:248 18.35 
29 *407:248 *1639:S0 17.17 
30 *407:248 *407:261 2 
31 *407:261 *407:265 21.74 
32 *407:265 *407:285 17.055 
33 *407:285 *407:289 4.52 
34 *407:289 *407:293 17.285 
35 *407:293 *407:295 3.165 
36 *407:295 *407:311 18.31 
37 *407:311 *1737:S0 22.135 
38 *407:311 *407:336 1.89 
39 *407:336 *1658:S0 4.05 
40 *407:336 *1650:S0 16.11 
41 *407:295 *1657:S0 3.6 
42 *407:293 *407:373 8.655 
43 *407:373 *1649:S0 4.05 
44 *407:373 *1734:S0 17.475 
45 *407:289 *1745:S0 6.665 
46 *407:285 *1744:S0 11.355 
47 *407:265 *407:415 1.14 
48 *407:415 *407:427 14.73 
49 *407:427 *407:439 17.82 
50 *407:439 *407:449 11.295 
51 *407:449 *407:463 17.5 
52 *407:463 *407:467 6.935 
53 *407:467 *1736:S0 18.99 
54 *407:467 *1634:S0 7.65 
55 *407:463 *1633:S0 13.805 
56 *407:449 *1642:S0 2.665 
57 *407:439 *407:517 1.14 
58 *407:517 *407:523 15.07 
59 *407:523 *1641:S0 9.64 
60 *407:523 *1720:S0 8.88853 
61 *407:517 *1721:S0 2.05 
62 *407:427 *1728:S0 11.43 
63 *407:415 *1729:S0 1.6 
64 *407:261 *1716:S0 5.52 
65 *407:234 *1718:S0 4.755 
66 *407:6 *1682:A 1.6 
67 *407:4 *407:611 5.225 
68 *407:611 *1683:A 6.63 
69 *407:611 *407:624 1.89 
70 *407:624 *1686:A1 5.085 
71 *407:624 *1685:B 9.06 
*END

*D_NET *408 0.0793671
*CONN
*I *1685:A I *D sky130_fd_sc_hd__and3_1
*I *1686:B1 I *D sky130_fd_sc_hd__a21oi_1
*I *1688:A I *D sky130_fd_sc_hd__xnor2_1
*I *1740:S1 I *D sky130_fd_sc_hd__mux4_1
*I *1724:S1 I *D sky130_fd_sc_hd__mux4_1
*I *1718:S1 I *D sky130_fd_sc_hd__mux4_1
*I *1629:S1 I *D sky130_fd_sc_hd__mux4_1
*I *1655:S1 I *D sky130_fd_sc_hd__mux4_1
*I *1647:S1 I *D sky130_fd_sc_hd__mux4_1
*I *1653:S1 I *D sky130_fd_sc_hd__mux4_1
*I *1645:S1 I *D sky130_fd_sc_hd__mux4_1
*I *1631:S1 I *D sky130_fd_sc_hd__mux4_1
*I *1732:S1 I *D sky130_fd_sc_hd__mux4_1
*I *1637:S1 I *D sky130_fd_sc_hd__mux4_1
*I *1734:S1 I *D sky130_fd_sc_hd__mux4_1
*I *1728:S1 I *D sky130_fd_sc_hd__mux4_1
*I *1721:S1 I *D sky130_fd_sc_hd__mux4_1
*I *1720:S1 I *D sky130_fd_sc_hd__mux4_1
*I *1641:S1 I *D sky130_fd_sc_hd__mux4_1
*I *1744:S1 I *D sky130_fd_sc_hd__mux4_1
*I *1639:S1 I *D sky130_fd_sc_hd__mux4_1
*I *1649:S1 I *D sky130_fd_sc_hd__mux4_1
*I *1657:S1 I *D sky130_fd_sc_hd__mux4_1
*I *1650:S1 I *D sky130_fd_sc_hd__mux4_1
*I *1658:S1 I *D sky130_fd_sc_hd__mux4_1
*I *1737:S1 I *D sky130_fd_sc_hd__mux4_1
*I *1745:S1 I *D sky130_fd_sc_hd__mux4_1
*I *1642:S1 I *D sky130_fd_sc_hd__mux4_1
*I *1634:S1 I *D sky130_fd_sc_hd__mux4_1
*I *1633:S1 I *D sky130_fd_sc_hd__mux4_1
*I *1736:S1 I *D sky130_fd_sc_hd__mux4_1
*I *1729:S1 I *D sky130_fd_sc_hd__mux4_1
*I *1716:S1 I *D sky130_fd_sc_hd__mux4_1
*I *1742:S1 I *D sky130_fd_sc_hd__mux4_1
*I *1726:S1 I *D sky130_fd_sc_hd__mux4_1
*I *2028:Q O *D sky130_fd_sc_hd__dfrtp_4
*CAP
1 *1685:A 2.5422e-05
2 *1686:B1 6.43321e-05
3 *1688:A 0.000234326
4 *1740:S1 0.00150813
5 *1724:S1 4.21512e-05
6 *1718:S1 0
7 *1629:S1 1.46398e-05
8 *1655:S1 0
9 *1647:S1 0.000397511
10 *1653:S1 0.00064521
11 *1645:S1 0
12 *1631:S1 0.000594343
13 *1732:S1 0
14 *1637:S1 0.000473332
15 *1734:S1 0.000112586
16 *1728:S1 0
17 *1721:S1 0
18 *1720:S1 0.000285683
19 *1641:S1 0.000154905
20 *1744:S1 2.03638e-05
21 *1639:S1 0.000433379
22 *1649:S1 4.2517e-05
23 *1657:S1 0
24 *1650:S1 0.000571446
25 *1658:S1 5.53735e-05
26 *1737:S1 0.000481694
27 *1745:S1 3.37045e-05
28 *1642:S1 0
29 *1634:S1 0.000305221
30 *1633:S1 0
31 *1736:S1 0.000904174
32 *1729:S1 0.000159684
33 *1716:S1 4.42289e-05
34 *1742:S1 0.00086632
35 *1726:S1 3.20069e-05
36 *2028:Q 0
37 *408:574 0.000445703
38 *408:570 0.0006318
39 *408:493 0.00122474
40 *408:484 0.000813786
41 *408:433 0.000553337
42 *408:431 0.00161713
43 *408:402 0.00145966
44 *408:396 0.00103606
45 *408:394 0.00116815
46 *408:384 0.00229034
47 *408:374 0.00110755
48 *408:278 0.000811937
49 *408:257 0.00138474
50 *408:249 0.00113939
51 *408:247 0.00145056
52 *408:243 0.0015866
53 *408:239 0.000745816
54 *408:216 0.00132317
55 *408:207 0.00107013
56 *408:158 0.00100715
57 *408:154 0.0011123
58 *408:150 0.00127582
59 *408:148 0.00143364
60 *408:146 0.00157884
61 *408:142 0.000753341
62 *408:134 0.000901971
63 *408:117 0.001677
64 *408:90 0.0016339
65 *408:80 0.00106326
66 *408:70 0.000796782
67 *408:49 0.00134096
68 *408:45 0.00195555
69 *408:30 0.000666406
70 *408:4 0.000961952
71 *1629:S1 *1781:A1 8.53113e-06
72 *1631:S1 *1937:CLK 0.000344978
73 *1631:S1 *1982:CLK 0.000179068
74 *1631:S1 *433:122 0.000160611
75 *1634:S1 *426:83 0
76 *1637:S1 *1755:A0 1.61696e-05
77 *1639:S1 *1782:A1 0
78 *1639:S1 *456:84 0.000395049
79 *1641:S1 *429:46 0
80 *1647:S1 *1654:A 0
81 *1685:A *409:16 4.99619e-05
82 *1720:S1 *430:14 0.000226841
83 *1724:S1 *1947:CLK 4.80285e-05
84 *1729:S1 *1806:A0 5.83121e-06
85 *1734:S1 *434:12 7.70938e-05
86 *1736:S1 *455:20 8.41703e-06
87 *1737:S1 *453:90 0.000640111
88 *1740:S1 *1897:CLK 0.000183036
89 *1740:S1 *1955:CLK 4.25365e-05
90 *1740:S1 *1963:CLK 9.27255e-06
91 *1740:S1 *424:71 7.23602e-05
92 *1742:S1 *1949:CLK 0.000104575
93 *1742:S1 *2094:A 1.33285e-05
94 *1742:S1 *425:16 3.65671e-05
95 *1742:S1 *425:40 8.6852e-05
96 *1744:S1 *456:84 0
97 *408:30 *1913:CLK 0.000332795
98 *408:30 *417:91 0.000132313
99 *408:30 *452:14 2.54692e-05
100 *408:45 *452:14 1.97849e-05
101 *408:45 *452:16 7.06865e-05
102 *408:49 *409:38 0.000183731
103 *408:49 *409:52 0.000120693
104 *408:49 *452:16 0.000627538
105 *408:49 *452:20 4.92971e-05
106 *408:70 *1719:B1 0
107 *408:70 *452:20 6.85608e-05
108 *408:80 *1719:B1 0
109 *408:80 *416:120 0.000141152
110 *408:80 *452:20 9.9535e-05
111 *408:80 *452:22 0.000250616
112 *408:80 *452:32 0.000139933
113 *408:90 *411:126 1.82242e-05
114 *408:90 *416:96 3.62236e-05
115 *408:90 *416:105 5.42386e-05
116 *408:90 *416:120 7.97165e-05
117 *408:90 *450:196 9.72231e-05
118 *408:117 *1767:A_N 0.000181376
119 *408:117 *412:158 4.58014e-05
120 *408:117 *450:18 0.000150464
121 *408:117 *450:22 0.000160658
122 *408:117 *450:96 1.1561e-05
123 *408:117 *450:107 0.000120228
124 *408:117 *450:118 6.6431e-05
125 *408:117 *450:131 7.21296e-06
126 *408:117 *450:161 5.20968e-05
127 *408:117 *451:115 2.7602e-05
128 *408:117 *452:32 0
129 *408:134 *2020:CLK 4.82863e-05
130 *408:142 *2082:A 0.000198286
131 *408:142 *416:184 0.000684882
132 *408:146 *2082:A 5.4003e-05
133 *408:146 *451:66 0
134 *408:146 *451:75 0
135 *408:148 *1869:A0 2.8185e-05
136 *408:154 *1828:A1 0.000253954
137 *408:207 *429:46 0.000423461
138 *408:216 *2004:CLK 0
139 *408:239 *454:53 0.00011852
140 *408:239 *456:84 0
141 *408:247 *2022:CLK 0.000204034
142 *408:249 *416:45 0.000377651
143 *408:257 *416:45 1.92979e-05
144 *408:384 *1781:A1 0.000183731
145 *408:384 *2052:CLK 4.92935e-05
146 *408:402 *434:12 2.42236e-05
147 *408:402 *436:69 0
148 *408:431 *1779:A1 0.000126331
149 *408:431 *2087:A 1.22762e-05
150 *408:431 *434:12 4.80285e-05
151 *408:431 *453:164 0.000329901
152 *408:484 *2090:A 0.000350486
153 *408:570 *409:8 0
154 *408:570 *409:16 0
155 *408:570 *417:91 0.000122325
156 *1629:A1 *408:394 8.67294e-05
157 *1629:A2 *1629:S1 2.42236e-05
158 *1629:A2 *408:384 4.75576e-05
159 *1629:A2 *408:394 1.10377e-05
160 *1629:A3 *408:394 5.55722e-05
161 *1633:A3 *1736:S1 0.000116184
162 *1633:A3 *408:158 2.24336e-05
163 *1633:S0 *1634:S1 0
164 *1633:S0 *408:158 0
165 *1635:A0 *1634:S1 0.00063631
166 *1635:A0 *1736:S1 0.000165983
167 *1635:A0 *408:158 0.000230869
168 *1637:A2 *1637:S1 2.68016e-05
169 *1637:A3 *1637:S1 1.87062e-05
170 *1637:S0 *1637:S1 0
171 *1641:A2 *1641:S1 3.05295e-05
172 *1642:A1 *408:216 0
173 *1642:A2 *408:207 0.000116158
174 *1642:A2 *408:216 9.50342e-06
175 *1643:A0 *1641:S1 0
176 *1644:B1 *1639:S1 0
177 *1644:B1 *408:239 0.000348762
178 *1645:A2 *408:484 0.000116158
179 *1645:A2 *408:493 9.50342e-06
180 *1646:B *1647:S1 4.84393e-05
181 *1646:B *408:484 4.43871e-06
182 *1646:B *408:493 0.000180321
183 *1648:A2 *1647:S1 0
184 *1649:A2 *1649:S1 1.73877e-05
185 *1649:A2 *408:249 2.97004e-06
186 *1650:S0 *1650:S1 0
187 *1651:A0 *408:247 4.39911e-06
188 *1652:B1 *408:402 9.22701e-05
189 *1652:B1 *408:484 0.000195043
190 *1653:S0 *1653:S1 4.58791e-05
191 *1654:B *1653:S1 0.000376066
192 *1655:A2 *408:394 0
193 *1655:A3 *408:402 2.60488e-05
194 *1655:S0 *408:484 0
195 *1656:A2 *408:394 5.05017e-05
196 *1659:A1 *408:278 6.58339e-05
197 *1683:A *1688:A 9.24049e-05
198 *1685:B *1688:A 3.39981e-05
199 *1685:B *408:570 0
200 *1685:B *408:574 0.0003175
201 *1686:A1 *1686:B1 5.05521e-05
202 *1718:A3 *408:384 9.01848e-05
203 *1719:A1 *1688:A 0
204 *1719:A1 *408:574 0
205 *1719:A2 *408:384 0.000159313
206 *1721:A2 *408:146 3.23391e-05
207 *1721:A3 *408:146 8.89884e-05
208 *1726:A0 *408:30 1.94723e-05
209 *1726:A2 *408:30 1.60083e-05
210 *1726:A3 *408:30 5.53249e-06
211 *1726:A3 *408:45 9.67851e-05
212 *1726:S0 *1742:S1 0.000193113
213 *1726:S0 *408:70 0.000120655
214 *1727:A2 *408:30 0.000378213
215 *1728:S0 *408:142 0.000321186
216 *1730:A1 *408:134 0.000119654
217 *1731:A1 *408:570 0.000238137
218 *1731:A1 *408:574 3.86529e-05
219 *1732:A2 *1637:S1 5.23362e-05
220 *1734:A2 *408:431 0.000174612
221 *1736:A3 *1736:S1 4.18603e-06
222 *1736:S0 *1736:S1 6.624e-05
223 *1737:A0 *1737:S1 2.49909e-05
224 *1741:B *1740:S1 0
225 *1744:A2 *1744:S1 5.4003e-05
226 *1744:A2 *408:239 9.14049e-05
227 *1744:A3 *408:243 9.23772e-05
228 *1744:A3 *408:247 3.03684e-05
229 *1746:A1 *1745:S1 2.75145e-05
230 *1746:A1 *408:239 7.06865e-05
231 *1759:A0 *408:80 8.23457e-05
232 *1765:A0 *408:484 0
233 *1769:S *408:80 0.00036366
234 *1770:S *408:402 8.08153e-06
235 *1775:S *408:402 0.000133178
236 *1779:A0 *408:431 0.000185398
237 *1780:A0 *1742:S1 0.000160693
238 *1781:A0 *408:384 3.38227e-05
239 *1784:A0 *408:394 0.000107982
240 *1787:S *1740:S1 2.26717e-05
241 *1792:A1 *1647:S1 0
242 *1809:S *408:216 0
243 *1813:D *408:90 0.000160658
244 *1815:S *1740:S1 9.29686e-05
245 *1815:S *408:45 3.9442e-05
246 *1816:A0 *408:431 6.66066e-05
247 *1816:A0 *408:433 5.81172e-05
248 *1817:A0 *1740:S1 0.000272984
249 *1820:S *1740:S1 0
250 *1828:S *408:148 0.000314687
251 *1828:S *408:150 0.000204739
252 *1828:S *408:154 0.000321696
253 *1835:S *1737:S1 0.000172527
254 *1838:A1 *408:216 0
255 *1839:S *1650:S1 0.000854062
256 *1841:D *408:117 7.44453e-05
257 *1855:A1 *1736:S1 3.83194e-05
258 *1855:S *1736:S1 4.66108e-05
259 *1860:S *408:142 0
260 *1863:S *408:216 0.000116853
261 *1864:S *408:207 0
262 *1870:S *408:134 5.83121e-06
263 *1875:S *408:249 0
264 *1883:S *408:484 0
265 *1888:S *1737:S1 0.000297857
266 *1896:D *1637:S1 0.000133741
267 *1913:D *408:30 1.7396e-05
268 *1913:D *408:570 0.000406771
269 *1916:D *1740:S1 0
270 *1945:D *408:402 0.000271043
271 *1945:D *408:484 0.000118504
272 *1948:D *408:431 0
273 *1949:D *1742:S1 0.000122331
274 *1950:D *408:384 1.52434e-05
275 *1955:D *1740:S1 0.000201604
276 *1962:D *1639:S1 0
277 *1963:D *1740:S1 0.000197973
278 *1983:D *1637:S1 0.000118513
279 *1984:D *1647:S1 0
280 *1985:D *1653:S1 2.68464e-05
281 *2008:D *408:216 9.54469e-05
282 *2016:D *1634:S1 0
283 *2020:D *408:134 0.000238427
284 *2022:D *408:247 0.000101379
285 *2038:D *1737:S1 0.000320834
286 *2041:D *408:207 7.63125e-05
287 *2044:D *1720:S1 0
288 *2046:D *1736:S1 4.17687e-05
289 *2052:D *408:384 0.000116153
290 *2053:D *1742:S1 4.91914e-05
291 *2056:D *408:394 0.000189634
292 *176:14 *1639:S1 0.00111467
293 *176:14 *408:384 3.97957e-05
294 *231:45 *408:394 9.56029e-06
295 *253:12 *1649:S1 2.24423e-05
296 *253:12 *1734:S1 5.51158e-05
297 *253:12 *408:249 0.000329001
298 *253:12 *408:257 6.63219e-06
299 *253:12 *408:402 9.91888e-05
300 *262:28 *408:49 0.000171323
301 *262:28 *408:117 1.17114e-05
302 *262:92 *1637:S1 0
303 *262:115 *1631:S1 2.61346e-05
304 *262:115 *1637:S1 6.24628e-05
305 *264:30 *408:431 1.19928e-05
306 *265:34 *1629:S1 2.60986e-05
307 *266:19 *408:45 0
308 *266:19 *408:49 0
309 *266:19 *408:90 0.000102179
310 *266:19 *408:117 6.36772e-05
311 *266:35 *1740:S1 4.66742e-05
312 *266:35 *408:30 2.54692e-05
313 *266:35 *408:45 2.24423e-05
314 *266:65 *1647:S1 0
315 *268:12 *408:117 0.000114492
316 *268:27 *408:117 1.1561e-05
317 *269:77 *408:216 0
318 *269:77 *408:239 0.000330156
319 *270:34 *408:431 6.52265e-05
320 *270:47 *1631:S1 9.27816e-05
321 *270:91 *408:80 0.000356583
322 *270:91 *408:90 0.000356576
323 *270:105 *1740:S1 0.00017941
324 *273:46 *408:216 0
325 *274:10 *408:117 0.000359917
326 *275:16 *408:134 0.000159857
327 *275:34 *1720:S1 0
328 *275:34 *408:142 0.000514398
329 *275:34 *408:146 0.000655925
330 *276:16 *408:117 0.000926387
331 *276:61 *408:216 9.61344e-05
332 *276:117 *408:207 0
333 *276:117 *408:216 0
334 *277:38 *408:249 0
335 *277:92 *1720:S1 5.83121e-06
336 *277:92 *408:134 0.000164679
337 *277:102 *1720:S1 0.000131791
338 *277:102 *408:148 5.05521e-05
339 *310:10 *408:402 0
340 *314:12 *1742:S1 4.66742e-05
341 *327:6 *408:384 3.03775e-05
342 *328:10 *1742:S1 4.66108e-05
343 *331:6 *408:394 3.82323e-06
344 *337:10 *1736:S1 0
345 *348:10 *1641:S1 0
346 *363:12 *1634:S1 5.4003e-05
347 *388:12 *408:207 0
348 *392:10 *408:30 8.23457e-05
349 *407:69 *408:484 0.00010727
350 *407:71 *1631:S1 9.0009e-05
351 *407:248 *1716:S1 3.45679e-05
352 *407:248 *408:117 0.000112852
353 *407:285 *1745:S1 3.1835e-05
354 *407:285 *408:216 4.20983e-05
355 *407:285 *408:239 1.97849e-05
356 *407:289 *1745:S1 5.83121e-06
357 *407:463 *408:207 8.53167e-05
358 *407:463 *408:216 3.57846e-05
359 *407:624 *1688:A 8.0005e-05
*RES
1 *2028:Q *408:4 1.6 
2 *408:4 *408:30 20.59 
3 *408:30 *1726:S1 4.05 
4 *408:30 *408:45 3.21 
5 *408:45 *408:49 10.01 
6 *408:49 *1742:S1 15.31 
7 *408:49 *408:70 4.775 
8 *408:70 *408:80 18.565 
9 *408:80 *408:90 13.055 
10 *408:90 *1716:S1 2.395 
11 *408:90 *408:117 29.62 
12 *408:117 *1729:S1 4.135 
13 *408:117 *408:134 12.55 
14 *408:134 *408:142 16.22 
15 *408:142 *408:146 9.5 
16 *408:146 *408:148 12.525 
17 *408:148 *408:150 3.21 
18 *408:150 *408:154 11.42 
19 *408:154 *408:158 4.655 
20 *408:158 *1736:S1 13.1364 
21 *408:158 *1633:S1 1.6 
22 *408:154 *1634:S1 11.1 
23 *408:150 *408:207 10.055 
24 *408:207 *1642:S1 3.6 
25 *408:207 *408:216 12.6 
26 *408:216 *1745:S1 4.395 
27 *408:216 *408:239 14.68 
28 *408:239 *408:243 4.175 
29 *408:243 *408:247 13.49 
30 *408:247 *408:249 9.795 
31 *408:249 *408:257 2.6689 
32 *408:257 *1737:S1 17.88 
33 *408:257 *408:278 4.865 
34 *408:278 *1658:S1 2.395 
35 *408:278 *1650:S1 17.045 
36 *408:249 *1657:S1 3.6 
37 *408:247 *1649:S1 4.665 
38 *408:243 *1639:S1 18.455 
39 *408:239 *1744:S1 4.215 
40 *408:148 *1641:S1 8.255 
41 *408:146 *1720:S1 10.43 
42 *408:142 *1721:S1 3.6 
43 *408:134 *1728:S1 1.6 
44 *408:80 *408:374 2 
45 *408:374 *408:384 18.08 
46 *408:384 *408:394 17.24 
47 *408:394 *408:396 2 
48 *408:396 *408:402 9.33 
49 *408:402 *1734:S1 6.03 
50 *408:402 *408:431 20.565 
51 *408:431 *408:433 1.485 
52 *408:433 *1637:S1 14.51 
53 *408:433 *1732:S1 1.6 
54 *408:431 *1631:S1 18.755 
55 *408:396 *408:484 17.62 
56 *408:484 *1645:S1 3.6 
57 *408:484 *408:493 3.93 
58 *408:493 *1653:S1 14.52 
59 *408:493 *1647:S1 10.08 
60 *408:394 *1655:S1 1.6 
61 *408:384 *1629:S1 4.215 
62 *408:374 *1718:S1 1.6 
63 *408:70 *1724:S1 4.395 
64 *408:45 *1740:S1 28.66 
65 *408:4 *408:570 12.7 
66 *408:570 *408:574 5.675 
67 *408:574 *1688:A 8.34 
68 *408:574 *1686:B1 4.74 
69 *408:570 *1685:A 2.41 
*END

*D_NET *409 0.0455474
*CONN
*I *1689:A I *D sky130_fd_sc_hd__and2_1
*I *1727:A1 I *D sky130_fd_sc_hd__o21a_1
*I *1741:A I *D sky130_fd_sc_hd__or2_1
*I *1648:A1 I *D sky130_fd_sc_hd__o21a_1
*I *1654:A I *D sky130_fd_sc_hd__or2_1
*I *1632:A1 I *D sky130_fd_sc_hd__o21a_1
*I *1733:A I *D sky130_fd_sc_hd__or2_1
*I *1638:A I *D sky130_fd_sc_hd__or2_1
*I *1651:S I *D sky130_fd_sc_hd__mux2_1
*I *1659:S I *D sky130_fd_sc_hd__mux2_1
*I *1635:S I *D sky130_fd_sc_hd__mux2_1
*I *1738:S I *D sky130_fd_sc_hd__mux2_1
*I *1622:A I *D sky130_fd_sc_hd__inv_2
*I *1730:S I *D sky130_fd_sc_hd__mux2_1
*I *1643:S I *D sky130_fd_sc_hd__mux2_1
*I *1722:S I *D sky130_fd_sc_hd__mux2_1
*I *1746:S I *D sky130_fd_sc_hd__mux2_1
*I *1717:A I *D sky130_fd_sc_hd__or2_1
*I *1690:A I *D sky130_fd_sc_hd__nor2_1
*I *1692:A I *D sky130_fd_sc_hd__xnor2_1
*I *2029:Q O *D sky130_fd_sc_hd__dfrtp_4
*CAP
1 *1689:A 0.000401442
2 *1727:A1 4.01979e-05
3 *1741:A 0
4 *1648:A1 0
5 *1654:A 0.000182501
6 *1632:A1 0
7 *1733:A 0.000602935
8 *1638:A 3.14992e-05
9 *1651:S 7.95331e-05
10 *1659:S 0
11 *1635:S 0.000102419
12 *1738:S 0.000545792
13 *1622:A 5.0414e-05
14 *1730:S 0
15 *1643:S 0.000542526
16 *1722:S 0.000244745
17 *1746:S 0.00108595
18 *1717:A 0
19 *1690:A 0.000108601
20 *1692:A 0
21 *2029:Q 0
22 *409:255 0.000819321
23 *409:180 0.00107159
24 *409:176 0.00121016
25 *409:174 0.00147374
26 *409:172 0.000911296
27 *409:166 0.00153569
28 *409:160 0.00116854
29 *409:154 0.00151823
30 *409:148 0.000876308
31 *409:133 0.00109006
32 *409:98 0.00121525
33 *409:94 0.00115648
34 *409:63 0.0021337
35 *409:52 0.00107604
36 *409:38 0.0015191
37 *409:32 0.000713345
38 *409:16 0.000401228
39 *409:8 0.000956828
40 *409:4 0.00061822
41 *1622:A *1796:A1 0
42 *1622:A *1949:CLK 7.21296e-06
43 *1635:S *455:104 0.000106791
44 *1638:A *1943:CLK 8.65905e-05
45 *1643:S *1860:A1 0.000173258
46 *1643:S *2003:CLK 0.000164874
47 *1689:A *2028:RESET_B 0
48 *1689:A *2029:RESET_B 0.000119071
49 *1722:S *430:8 0.000208484
50 *1722:S *430:67 0.000109016
51 *1727:A1 *417:87 6.55328e-05
52 *1733:A *1775:A0 0.000123225
53 *1738:S *1974:CLK 0.000277223
54 *1738:S *455:57 2.05056e-05
55 *1738:S *455:73 0.000136553
56 *1738:S *455:104 2.75229e-05
57 *1746:S *411:70 0.000237249
58 *1746:S *411:74 0.000149621
59 *1746:S *452:32 7.23602e-05
60 *409:8 *2028:D 0
61 *409:8 *2028:RESET_B 0
62 *409:16 *2070:A 0
63 *409:32 *410:22 0.000143188
64 *409:32 *417:6 8.40269e-05
65 *409:32 *417:8 7.49327e-05
66 *409:38 *417:8 0.000160641
67 *409:38 *417:12 8.23457e-05
68 *409:52 *1938:CLK 0.000356576
69 *409:52 *422:8 0.00013687
70 *409:52 *452:20 0
71 *409:63 *452:32 0.00114662
72 *409:94 *1709:B 4.66108e-05
73 *409:94 *1749:A_N 1.83847e-05
74 *409:94 *1841:A_N 0.000124895
75 *409:94 *1841:B 7.21296e-06
76 *409:94 *411:43 0.000181376
77 *409:94 *411:64 0.000225189
78 *409:94 *411:153 9.37731e-05
79 *409:94 *412:106 2.54431e-05
80 *409:94 *414:29 0
81 *409:94 *416:180 0
82 *409:98 *416:180 0
83 *409:98 *416:184 0
84 *409:98 *430:67 0.000377302
85 *409:133 *425:8 9.4087e-05
86 *409:148 *1796:A1 0
87 *409:148 *425:75 0
88 *409:160 *410:49 0.000121697
89 *409:160 *410:53 9.41173e-05
90 *409:160 *410:57 4.43871e-06
91 *409:160 *424:71 0
92 *409:160 *454:16 4.43871e-06
93 *409:160 *454:20 0.000203578
94 *409:160 *454:22 0.000126714
95 *409:160 *454:26 4.19967e-05
96 *409:160 *454:28 0
97 *409:166 *2056:CLK 0
98 *409:166 *434:72 0
99 *409:166 *455:145 0
100 *409:166 *455:160 0
101 *409:172 *1773:A0 0.000139245
102 *409:172 *1943:CLK 0
103 *409:172 *434:72 0
104 *409:174 *1773:A0 0.000237362
105 *409:174 *455:104 0
106 *409:174 *456:92 0.00047128
107 *409:176 *455:104 0
108 *409:180 *428:23 0
109 *409:180 *455:104 0
110 *409:255 *1648:B1 0.000161829
111 *409:255 *424:71 0
112 *409:255 *454:16 4.84393e-05
113 *1632:A2 *409:160 2.75145e-05
114 *1632:A2 *409:166 0.000269261
115 *1635:A0 *1635:S 0.000275553
116 *1644:A1 *1638:A 5.83121e-06
117 *1647:S1 *1654:A 0
118 *1648:A2 *1654:A 1.60203e-05
119 *1648:A2 *409:255 4.82919e-05
120 *1652:A2 *1654:A 0
121 *1660:B1 *409:166 0
122 *1685:A *409:16 4.99619e-05
123 *1685:B *409:16 3.24046e-05
124 *1685:C *409:16 8.48112e-05
125 *1687:B *409:16 0
126 *1689:B *409:16 0
127 *1690:B *1690:A 0.000164874
128 *1691:B *1689:A 8.97564e-05
129 *1692:B *409:16 8.65961e-05
130 *1719:A2 *409:52 2.49909e-05
131 *1719:A2 *409:63 1.91597e-05
132 *1721:A1 *1643:S 0.000197269
133 *1722:A1 *1722:S 0.000138808
134 *1723:B1 *1722:S 4.66826e-05
135 *1723:B1 *1746:S 3.67779e-05
136 *1723:B1 *409:63 0.00013532
137 *1726:S0 *1727:A1 0.00011852
138 *1730:A0 *409:98 0.000182271
139 *1731:B1 *409:94 0.00023241
140 *1731:B2 *409:133 0.000142614
141 *1735:A2 *1638:A 7.00889e-06
142 *1735:A2 *409:172 0.000122888
143 *1747:A1 *409:148 0.000418498
144 *1747:B1 *1746:S 3.00381e-05
145 *1747:B2 *1622:A 0
146 *1747:B2 *409:148 0
147 *1762:S *409:133 0.000235568
148 *1763:A0 *409:166 0
149 *1775:A1 *1733:A 0.000238919
150 *1775:S *1733:A 2.05056e-05
151 *1783:S *409:166 0.000105849
152 *1796:S *409:148 0.000226431
153 *1809:A1 *1738:S 3.18568e-05
154 *1826:S *1738:S 0.000378975
155 *1837:A1 *1738:S 0.000163204
156 *1860:A0 *1722:S 0.000119521
157 *1860:S *409:98 0.000464203
158 *1878:A1 *409:52 0.000360611
159 *1880:A1 *409:160 8.04014e-05
160 *1880:S *409:160 0.000101325
161 *1882:S *409:166 3.85884e-05
162 *1882:S *409:172 0.000112184
163 *1882:S *409:174 0
164 *1913:D *409:8 0
165 *1934:D *409:166 7.63125e-05
166 *1935:D *409:174 0
167 *1941:D *409:160 0
168 *1965:D *409:255 4.99619e-05
169 *1974:D *1738:S 0.000130317
170 *1993:D *409:180 0
171 *2003:D *1643:S 1.54049e-05
172 *2007:D *1738:S 0.000111513
173 *2007:D *409:180 0
174 *2014:D *409:176 0
175 *2014:D *409:180 0
176 *2020:D *409:98 0.000177657
177 *2022:D *409:176 0
178 *2036:D *1643:S 0.000118081
179 *2056:D *409:166 0
180 *2057:D *409:174 3.18219e-05
181 *2063:D *409:176 0
182 *163:8 *1622:A 9.50342e-06
183 *163:16 *1622:A 8.53113e-06
184 *197:16 *409:166 0
185 *197:16 *409:174 0
186 *197:16 *409:176 0
187 *197:16 *409:180 0
188 *219:6 *1690:A 4.58257e-05
189 *219:6 *409:16 1.34503e-05
190 *231:24 *409:52 0.000183036
191 *253:12 *1738:S 0.000434331
192 *261:8 *409:94 5.02221e-05
193 *262:28 *409:63 0.000152492
194 *262:81 *1746:S 9.91257e-05
195 *264:8 *409:63 0.000911679
196 *266:19 *409:38 7.16181e-05
197 *266:19 *409:52 0.00107252
198 *266:53 *1654:A 0.0001249
199 *267:73 *409:148 0.000265383
200 *267:73 *409:154 0.000199295
201 *267:73 *409:255 0.000387891
202 *267:87 *409:255 4.82919e-05
203 *270:16 *409:52 1.33205e-05
204 *271:17 *409:94 0.00016881
205 *271:19 *409:94 0.000168038
206 *272:84 *409:176 0
207 *273:52 *1635:S 0.000290115
208 *273:52 *1738:S 3.66286e-05
209 *273:54 *1738:S 0.000352161
210 *274:53 *1738:S 8.88038e-05
211 *275:34 *409:98 0
212 *277:86 *409:94 0
213 *277:86 *409:98 0.000278134
214 *277:92 *409:98 2.66852e-05
215 *328:10 *409:52 0.000129728
216 *359:10 *1722:S 2.97004e-06
217 *367:6 *1643:S 0.000192125
218 *407:234 *409:52 0.000158998
219 *407:248 *409:52 0.000261642
220 *408:49 *409:38 0.000183731
221 *408:49 *409:52 0.000120693
222 *408:570 *409:8 0
223 *408:570 *409:16 0
*RES
1 *2029:Q *409:4 1.6 
2 *409:4 *409:8 5.42 
3 *409:8 *409:16 7.535 
4 *409:16 *1692:A 1.6 
5 *409:16 *1690:A 4.12 
6 *409:8 *409:32 7.625 
7 *409:32 *409:38 6.32 
8 *409:38 *409:52 23.66 
9 *409:52 *1717:A 1.6 
10 *409:52 *409:63 15.815 
11 *409:63 *1746:S 20.13 
12 *409:63 *409:94 20.445 
13 *409:94 *409:98 14.855 
14 *409:98 *1722:S 10.14 
15 *409:98 *1643:S 14.085 
16 *409:94 *1730:S 1.6 
17 *409:38 *409:133 11.005 
18 *409:133 *1622:A 4.47 
19 *409:133 *409:148 12.86 
20 *409:148 *409:154 6.95 
21 *409:154 *409:160 14.285 
22 *409:160 *409:166 14.765 
23 *409:166 *409:172 6.27 
24 *409:172 *409:174 12.6 
25 *409:174 *409:176 12.345 
26 *409:176 *409:180 8.225 
27 *409:180 *1738:S 21.665 
28 *409:180 *1635:S 6.205 
29 *409:176 *1659:S 3.6 
30 *409:174 *1651:S 4.74 
31 *409:172 *1638:A 4.395 
32 *409:166 *1733:A 12.675 
33 *409:160 *1632:A1 1.6 
34 *409:154 *409:255 13.25 
35 *409:255 *1654:A 8.975 
36 *409:255 *1648:A1 1.6 
37 *409:148 *1741:A 1.6 
38 *409:32 *1727:A1 6.98 
39 *409:4 *1689:A 12.425 
*END

*D_NET *410 0.0222464
*CONN
*I *1694:A I *D sky130_fd_sc_hd__nand2_1
*I *1693:A I *D sky130_fd_sc_hd__nor2_1
*I *1696:A I *D sky130_fd_sc_hd__xnor2_1
*I *1727:B1 I *D sky130_fd_sc_hd__o21a_1
*I *1623:A I *D sky130_fd_sc_hd__inv_2
*I *1743:B1 I *D sky130_fd_sc_hd__o21a_1
*I *1656:B1 I *D sky130_fd_sc_hd__o21a_1
*I *1648:B1 I *D sky130_fd_sc_hd__o21a_1
*I *1632:B1 I *D sky130_fd_sc_hd__o21a_1
*I *1640:B1 I *D sky130_fd_sc_hd__o21a_1
*I *1735:B1 I *D sky130_fd_sc_hd__o21a_1
*I *1719:B1 I *D sky130_fd_sc_hd__o21a_1
*I *2030:Q O *D sky130_fd_sc_hd__dfrtp_4
*CAP
1 *1694:A 0.000262059
2 *1693:A 2.61242e-05
3 *1696:A 0
4 *1727:B1 8.00596e-05
5 *1623:A 2.34825e-05
6 *1743:B1 0
7 *1656:B1 0
8 *1648:B1 0.000375841
9 *1632:B1 0
10 *1640:B1 0.00013485
11 *1735:B1 0.000125166
12 *1719:B1 0.000726324
13 *2030:Q 4.23943e-05
14 *410:88 0.000660638
15 *410:57 0.000751282
16 *410:53 0.000646843
17 *410:49 0.00084843
18 *410:43 0.000773729
19 *410:39 0.00108203
20 *410:24 0.00153456
21 *410:22 0.000870688
22 *410:16 0.000907817
23 *410:10 0.000414646
24 *410:8 0.000460426
25 *1623:A *1796:A1 2.7881e-05
26 *1648:B1 *421:10 8.15598e-05
27 *1648:B1 *421:78 0.000157714
28 *1727:B1 *417:87 0.000136884
29 *410:8 *446:151 8.65905e-05
30 *410:10 *2029:CLK 0.000133075
31 *410:10 *2029:D 3.47837e-05
32 *410:10 *417:108 4.9968e-05
33 *410:16 *417:108 0.000163019
34 *410:22 *417:6 1.83847e-05
35 *410:39 *2078:A 0.000416923
36 *410:43 *1949:CLK 1.81431e-05
37 *410:49 *1949:CLK 0.000123225
38 *410:57 *454:28 0
39 *410:88 *2055:CLK 0.000150653
40 *410:88 *421:82 4.82919e-05
41 *1629:A0 *410:57 4.40812e-05
42 *1629:S0 *410:49 4.71151e-05
43 *1629:S0 *410:53 4.62396e-05
44 *1629:S0 *410:57 0
45 *1636:B2 *410:53 0.000132713
46 *1652:A2 *1648:B1 2.75229e-05
47 *1656:A1 *410:88 0.000138799
48 *1660:A2 *1648:B1 0.000282011
49 *1660:B1 *1648:B1 0.000547777
50 *1687:B *410:22 0.000160641
51 *1691:B *410:10 0
52 *1691:B *410:16 0
53 *1694:B *1694:A 0.000147827
54 *1719:A2 *1719:B1 4.82863e-05
55 *1726:S0 *1719:B1 0
56 *1726:S0 *1727:B1 0
57 *1726:S0 *410:24 0
58 *1727:A2 *1727:B1 3.09233e-05
59 *1731:A2 *1727:B1 8.71001e-05
60 *1731:A2 *410:24 7.89689e-05
61 *1731:B1 *1719:B1 0.00152222
62 *1731:B1 *410:24 3.09233e-05
63 *1731:B2 *410:39 0.000275572
64 *1735:A1 *1640:B1 0.000230229
65 *1735:A1 *1735:B1 0.000650004
66 *1739:B2 *1640:B1 4.21973e-05
67 *1739:B2 *1735:B1 6.90876e-05
68 *1742:A1 *410:49 0
69 *1742:A3 *410:88 2.49909e-05
70 *1743:A2 *410:43 2.75229e-05
71 *1762:S *410:49 0.000294367
72 *1769:S *1719:B1 0
73 *1772:A1 *410:57 0.000383677
74 *1772:S *410:57 5.98004e-06
75 *1774:S *410:49 0.000462835
76 *1783:S *1648:B1 6.58955e-06
77 *1880:A1 *410:49 4.08568e-05
78 *1880:A1 *410:53 0.000112123
79 *1880:S *410:57 0
80 *1913:D *1727:B1 0
81 *1913:D *410:24 0
82 *1938:D *1719:B1 9.54399e-05
83 *1941:D *410:49 0
84 *1946:D *1719:B1 0.000140787
85 *1949:D *410:49 0.000180894
86 *2055:D *410:88 0.000128642
87 *163:8 *1623:A 2.7881e-05
88 *163:16 *410:43 1.91597e-05
89 *163:73 *410:88 0.000400433
90 *163:108 *1623:A 4.43871e-06
91 *164:8 *410:39 4.82919e-05
92 *164:8 *410:43 0.000307054
93 *164:73 *1640:B1 2.49909e-05
94 *164:86 *1640:B1 0.000162325
95 *221:8 *1693:A 4.66108e-05
96 *221:12 *1694:A 2.59981e-05
97 *221:12 *410:10 8.68724e-05
98 *224:6 *1694:A 4.99619e-05
99 *231:51 *410:57 0
100 *231:107 *410:57 0
101 *264:8 *1719:B1 0
102 *264:26 *410:57 4.83411e-05
103 *265:34 *1640:B1 0.00020613
104 *270:30 *1640:B1 0.000347922
105 *270:30 *1735:B1 0.000763241
106 *306:12 *410:49 0
107 *315:10 *410:57 0.000105266
108 *407:51 *410:49 0.000106829
109 *408:70 *1719:B1 0
110 *408:80 *1719:B1 0
111 *409:32 *410:22 0.000143188
112 *409:160 *410:49 0.000121697
113 *409:160 *410:53 9.41173e-05
114 *409:160 *410:57 4.43871e-06
115 *409:255 *1648:B1 0.000161829
*RES
1 *2030:Q *410:8 4.395 
2 *410:8 *410:10 3.93 
3 *410:10 *410:16 6.065 
4 *410:16 *410:22 12.38 
5 *410:22 *410:24 2.4 
6 *410:24 *1719:B1 21.75 
7 *410:24 *410:39 11.075 
8 *410:39 *410:43 4.86 
9 *410:43 *410:49 14.225 
10 *410:49 *410:53 4.635 
11 *410:53 *410:57 12.05 
12 *410:57 *1735:B1 8.605 
13 *410:57 *1640:B1 11.21 
14 *410:53 *1632:B1 3.6 
15 *410:49 *410:88 9.35 
16 *410:88 *1648:B1 16.385 
17 *410:88 *1656:B1 1.6 
18 *410:43 *1743:B1 1.6 
19 *410:39 *1623:A 6.215 
20 *410:22 *1727:B1 6 
21 *410:16 *1696:A 1.6 
22 *410:10 *1693:A 4.05 
23 *410:8 *1694:A 9.015 
*END

*D_NET *411 0.0205711
*CONN
*I *1664:A I *D sky130_fd_sc_hd__xor2_1
*I *1701:A I *D sky130_fd_sc_hd__xor2_1
*I *1702:A I *D sky130_fd_sc_hd__and3_1
*I *1703:A1 I *D sky130_fd_sc_hd__a21oi_1
*I *1850:A I *D sky130_fd_sc_hd__nand4_4
*I *1868:D I *D sky130_fd_sc_hd__nand4b_4
*I *1832:D I *D sky130_fd_sc_hd__nand4b_4
*I *1710:A I *D sky130_fd_sc_hd__nand4_4
*I *1785:A I *D sky130_fd_sc_hd__nand4_4
*I *1776:A_N I *D sky130_fd_sc_hd__and4bb_4
*I *1700:A I *D sky130_fd_sc_hd__nor2_1
*I *1706:A1 I *D sky130_fd_sc_hd__a31o_1
*I *1711:A1 I *D sky130_fd_sc_hd__a41o_1
*I *1767:D I *D sky130_fd_sc_hd__nand4b_4
*I *1885:A_N I *D sky130_fd_sc_hd__and4b_4
*I *1758:A_N I *D sky130_fd_sc_hd__and4b_4
*I *1794:A_N I *D sky130_fd_sc_hd__and4b_4
*I *1813:A_N I *D sky130_fd_sc_hd__and4bb_4
*I *1749:D I *D sky130_fd_sc_hd__nand4b_4
*I *1859:A_N I *D sky130_fd_sc_hd__and4bb_4
*I *1804:A I *D sky130_fd_sc_hd__nand4_4
*I *1823:A_N I *D sky130_fd_sc_hd__and4bb_4
*I *1841:A_N I *D sky130_fd_sc_hd__and4b_4
*I *1994:Q O *D sky130_fd_sc_hd__dfrtp_4
*CAP
1 *1664:A 0.000197918
2 *1701:A 0
3 *1702:A 2.08101e-05
4 *1703:A1 6.81998e-05
5 *1850:A 1.16965e-05
6 *1868:D 0
7 *1832:D 0
8 *1710:A 9.98478e-05
9 *1785:A 0.000498356
10 *1776:A_N 0
11 *1700:A 0.00010601
12 *1706:A1 0.000326023
13 *1711:A1 0.000129466
14 *1767:D 0
15 *1885:A_N 0
16 *1758:A_N 0
17 *1794:A_N 0.000211725
18 *1813:A_N 0
19 *1749:D 0
20 *1859:A_N 0
21 *1804:A 0.000189697
22 *1823:A_N 0
23 *1841:A_N 0.000476296
24 *1994:Q 0
25 *411:244 9.5963e-05
26 *411:207 0.000552321
27 *411:203 0.000243867
28 *411:179 0.000725274
29 *411:175 0.000418166
30 *411:164 0.000460232
31 *411:153 0.000455139
32 *411:126 0.000562683
33 *411:111 0.000649271
34 *411:94 0.000418775
35 *411:76 0.000287709
36 *411:74 0.000318466
37 *411:70 0.000325832
38 *411:64 0.000536264
39 *411:53 0.000231215
40 *411:45 0.0001605
41 *411:43 0.000236965
42 *411:33 0.000284118
43 *411:18 0.000705461
44 *411:16 0.000362413
45 *411:14 0.000815381
46 *411:4 0.000789307
47 *1700:A *1997:CLK 0.000116158
48 *1700:A *1997:D 0.000136305
49 *1700:A *1998:RESET_B 0
50 *1700:A *423:33 0.0001752
51 *1703:A1 *1703:A2 5.50605e-05
52 *1703:A1 *412:18 3.64998e-06
53 *1706:A1 *1997:CLK 4.82863e-05
54 *1706:A1 *2001:D 8.8266e-05
55 *1710:A *1998:RESET_B 0
56 *1710:A *2002:CLK 1.34361e-05
57 *1710:A *2002:D 0.000136884
58 *1710:A *438:185 0
59 *1711:A1 *2000:RESET_B 0
60 *1711:A1 *413:76 0
61 *1711:A1 *438:185 0
62 *1785:A *1776:B_N 1.19928e-05
63 *1785:A *1785:B 0
64 *1785:A *412:121 1.56428e-05
65 *1785:A *447:18 2.69297e-05
66 *1804:A *451:115 6.95248e-05
67 *1841:A_N *1841:B 0.000257644
68 *1850:A *1703:A2 5.33786e-06
69 *411:14 *1925:D 0
70 *411:14 *1994:D 8.65961e-05
71 *411:14 *1994:RESET_B 0
72 *411:14 *432:45 0
73 *411:16 *1702:B 3.31103e-05
74 *411:18 *1702:B 4.9253e-06
75 *411:33 *1702:B 0
76 *411:33 *1995:CLK 0
77 *411:43 *1703:A2 2.32597e-05
78 *411:43 *1850:B 8.8266e-05
79 *411:43 *412:39 8.40213e-05
80 *411:43 *450:61 0.000160641
81 *411:45 *1832:A_N 8.23457e-05
82 *411:45 *412:39 7.3151e-05
83 *411:53 *1859:B_N 4.66108e-05
84 *411:53 *416:180 0.000179008
85 *411:64 *1859:B_N 4.66108e-05
86 *411:64 *450:14 6.1357e-05
87 *411:70 *1885:C 5.83497e-05
88 *411:76 *451:115 7.75325e-05
89 *411:94 *451:115 7.16437e-05
90 *411:111 *416:96 0.000484137
91 *411:111 *451:115 1.01661e-05
92 *411:126 *1758:B 0.000122325
93 *411:126 *1758:C 2.30292e-05
94 *411:126 *416:96 6.01072e-05
95 *411:126 *447:18 1.61428e-05
96 *411:153 *1709:A 8.66107e-06
97 *411:153 *414:8 3.75134e-05
98 *411:153 *414:25 0
99 *411:153 *414:29 0
100 *411:175 *438:185 0
101 *411:179 *1997:D 1.4389e-05
102 *411:179 *1997:RESET_B 5.23485e-05
103 *411:203 *438:185 0
104 *411:207 *2002:D 2.75145e-05
105 *411:207 *447:18 9.66021e-05
106 *411:244 *1703:A2 3.23663e-05
107 *411:244 *1850:B 1.16578e-05
108 *1701:B *411:14 5.43722e-05
109 *1702:C *411:16 0.000453745
110 *1713:B *1706:A1 0.000164874
111 *1716:A0 *1794:A_N 7.5999e-05
112 *1716:A1 *1794:A_N 0.00018305
113 *1716:A2 *411:111 5.23362e-05
114 *1716:S0 *1794:A_N 0
115 *1723:B1 *411:53 0.000182342
116 *1730:A1 *1841:A_N 6.97202e-05
117 *1731:B1 *1841:A_N 1.61831e-05
118 *1731:B1 *411:64 0.000125541
119 *1731:B1 *411:153 0.000168753
120 *1746:S *411:70 0.000237249
121 *1746:S *411:74 0.000149621
122 *1748:A *1711:A1 1.03833e-05
123 *1758:D *411:126 1.03423e-05
124 *1776:D *1785:A 4.21889e-05
125 *1813:D *411:111 0.000241954
126 *1813:D *411:126 5.53249e-06
127 *1850:D *411:43 0.00013994
128 *1885:D *411:70 0.000342784
129 *165:29 *1706:A1 7.43206e-05
130 *165:29 *1711:A1 3.24583e-05
131 *165:29 *411:164 4.80182e-05
132 *165:29 *411:179 2.0141e-05
133 *165:42 *1706:A1 6.98204e-05
134 *225:8 *411:14 0.000219015
135 *225:10 *411:14 1.12578e-05
136 *225:10 *411:16 4.82919e-05
137 *232:10 *1710:A 0
138 *232:10 *1711:A1 0
139 *232:10 *411:153 0
140 *232:10 *411:175 0
141 *232:10 *411:203 0
142 *261:14 *411:111 0.000181307
143 *263:6 *411:126 1.83847e-05
144 *263:95 *1794:A_N 2.65028e-05
145 *265:26 *1785:A 4.66108e-05
146 *265:101 *1785:A 0.000123225
147 *267:14 *1794:A_N 8.94611e-05
148 *272:14 *411:33 8.08153e-06
149 *273:8 *1804:A 0.00018471
150 *275:6 *411:43 1.91597e-05
151 *275:6 *411:244 4.47209e-05
152 *275:16 *411:33 0.000139933
153 *275:111 *411:33 9.53428e-06
154 *275:111 *411:43 0.000274659
155 *277:86 *411:43 1.44259e-05
156 *278:12 *411:70 2.16917e-05
157 *278:12 *411:74 0.000120655
158 *295:8 *1794:A_N 4.82919e-05
159 *407:265 *1794:A_N 0
160 *407:265 *1804:A 0
161 *407:265 *411:76 0
162 *407:265 *411:94 0
163 *407:265 *411:111 0
164 *408:90 *411:126 1.82242e-05
165 *409:94 *1841:A_N 0.000124895
166 *409:94 *411:43 0.000181376
167 *409:94 *411:64 0.000225189
168 *409:94 *411:153 9.37731e-05
*RES
1 *1994:Q *411:4 1.6 
2 *411:4 *411:14 14.365 
3 *411:14 *411:16 5.28 
4 *411:16 *411:18 1.83 
5 *411:18 *1841:A_N 9.985 
6 *411:18 *411:33 6.25 
7 *411:33 *411:43 9.805 
8 *411:43 *411:45 1.485 
9 *411:45 *411:53 6.595 
10 *411:53 *1823:A_N 1.6 
11 *411:53 *411:64 6.14 
12 *411:64 *411:70 7.295 
13 *411:70 *411:74 4.52 
14 *411:74 *411:76 2.145 
15 *411:76 *1804:A 7.785 
16 *411:76 *1859:A_N 3.6 
17 *411:74 *411:94 2.145 
18 *411:94 *1749:D 3.6 
19 *411:94 *411:111 9.12 
20 *411:111 *1813:A_N 3.6 
21 *411:111 *411:126 6.785 
22 *411:126 *1794:A_N 10.745 
23 *411:126 *1758:A_N 1.6 
24 *411:70 *1885:A_N 1.6 
25 *411:64 *411:153 5.675 
26 *411:153 *1767:D 1.6 
27 *411:153 *411:164 6.605 
28 *411:164 *1711:A1 5.745 
29 *411:164 *411:175 0.615 
30 *411:175 *411:179 5.555 
31 *411:179 *1706:A1 7.945 
32 *411:179 *1700:A 9.02 
33 *411:175 *411:203 1.38 
34 *411:203 *411:207 3.485 
35 *411:207 *1776:A_N 1.6 
36 *411:207 *1785:A 8.02 
37 *411:203 *1710:A 5.745 
38 *411:45 *1832:D 1.6 
39 *411:43 *1868:D 1.6 
40 *411:33 *411:244 0.795 
41 *411:244 *1850:A 1.96 
42 *411:244 *1703:A1 3.1 
43 *411:16 *1702:A 1.96 
44 *411:14 *1701:A 1.6 
45 *411:4 *1664:A 4.465 
*END

*D_NET *412 0.0238056
*CONN
*I *1665:A I *D sky130_fd_sc_hd__nor2_1
*I *1666:A I *D sky130_fd_sc_hd__and2_1
*I *1706:A2 I *D sky130_fd_sc_hd__a31o_1
*I *1703:B1 I *D sky130_fd_sc_hd__a21oi_1
*I *1868:A_N I *D sky130_fd_sc_hd__nand4b_4
*I *1711:A2 I *D sky130_fd_sc_hd__a41o_1
*I *1823:B_N I *D sky130_fd_sc_hd__and4bb_4
*I *1850:B I *D sky130_fd_sc_hd__nand4_4
*I *1776:B_N I *D sky130_fd_sc_hd__and4bb_4
*I *1758:B I *D sky130_fd_sc_hd__and4b_4
*I *1813:B_N I *D sky130_fd_sc_hd__and4bb_4
*I *1705:A I *D sky130_fd_sc_hd__xnor2_1
*I *1710:B I *D sky130_fd_sc_hd__nand4_4
*I *1785:B I *D sky130_fd_sc_hd__nand4_4
*I *1794:B I *D sky130_fd_sc_hd__and4b_4
*I *1767:A_N I *D sky130_fd_sc_hd__nand4b_4
*I *1749:A_N I *D sky130_fd_sc_hd__nand4b_4
*I *1885:B I *D sky130_fd_sc_hd__and4b_4
*I *1859:B_N I *D sky130_fd_sc_hd__and4bb_4
*I *1804:B I *D sky130_fd_sc_hd__nand4_4
*I *1841:B I *D sky130_fd_sc_hd__and4b_4
*I *1832:A_N I *D sky130_fd_sc_hd__nand4b_4
*I *1702:B I *D sky130_fd_sc_hd__and3_1
*I *1995:Q O *D sky130_fd_sc_hd__dfrtp_4
*CAP
1 *1665:A 7.25841e-05
2 *1666:A 0
3 *1706:A2 0.000410265
4 *1703:B1 1.49167e-05
5 *1868:A_N 0
6 *1711:A2 0.000392186
7 *1823:B_N 0
8 *1850:B 0.000118701
9 *1776:B_N 3.04626e-05
10 *1758:B 0.000294726
11 *1813:B_N 0
12 *1705:A 0.000145268
13 *1710:B 2.08101e-05
14 *1785:B 1.04051e-05
15 *1794:B 0.000139846
16 *1767:A_N 9.67337e-05
17 *1749:A_N 1.50409e-05
18 *1885:B 4.24117e-05
19 *1859:B_N 0.00010307
20 *1804:B 0.000234619
21 *1841:B 0.000528278
22 *1832:A_N 0.000328789
23 *1702:B 0.000183779
24 *1995:Q 0
25 *412:271 0.000922725
26 *412:222 0.00053306
27 *412:205 0.000259576
28 *412:182 0.000346948
29 *412:162 0.000443573
30 *412:158 0.000396197
31 *412:125 0.000274567
32 *412:123 6.56979e-05
33 *412:121 0.000187192
34 *412:119 0.000231073
35 *412:106 0.000198982
36 *412:91 0.000176731
37 *412:80 0.000206089
38 *412:54 0.000806025
39 *412:52 9.85656e-05
40 *412:39 0.000522482
41 *412:37 0.000319979
42 *412:33 0.000162888
43 *412:18 0.000295469
44 *412:14 0.000740079
45 *412:10 0.00114718
46 *412:4 0.00093698
47 *1702:B *1995:CLK 0.000116853
48 *1703:B1 *1703:A2 1.38736e-05
49 *1705:A *1700:B 0.000247394
50 *1705:A *423:29 0.000198939
51 *1706:A2 *1706:A3 0.00018305
52 *1706:A2 *1706:B1 0.000125634
53 *1706:A2 *1925:D 0
54 *1706:A2 *1995:RESET_B 6.28765e-05
55 *1706:A2 *413:64 0.000181145
56 *1710:B *1710:C 0
57 *1711:A2 *1711:B1 1.61831e-05
58 *1711:A2 *413:36 0
59 *1711:A2 *413:80 2.66586e-05
60 *1711:A2 *414:25 1.46411e-05
61 *1711:A2 *414:29 9.86611e-05
62 *1711:A2 *450:226 0
63 *1758:B *1758:C 0.000308719
64 *1767:A_N *1767:B 8.65961e-05
65 *1767:A_N *416:180 4.21973e-05
66 *1767:A_N *450:131 1.07797e-05
67 *1776:B_N *447:18 3.83194e-05
68 *1794:B *1794:C 0.000341885
69 *1794:B *447:18 5.02121e-05
70 *1794:B *450:161 7.3151e-05
71 *1804:B *1804:C 9.53428e-06
72 *1804:B *450:39 2.75229e-05
73 *1804:B *450:50 0.000215455
74 *1832:A_N *1832:B 3.95698e-05
75 *1841:B *416:180 0.000179015
76 *1850:B *1703:A2 5.05437e-05
77 *1850:B *413:23 2.97004e-06
78 *1859:B_N *450:14 0.000270415
79 *412:10 *1925:D 0
80 *412:10 *1995:RESET_B 6.57706e-05
81 *412:14 *1995:CLK 1.47347e-05
82 *412:14 *1995:RESET_B 0.00015737
83 *412:18 *1995:CLK 1.56428e-05
84 *412:37 *413:23 8.65905e-05
85 *412:54 *416:180 0.000152127
86 *412:80 *416:180 0.000170477
87 *412:91 *416:180 0.000149766
88 *412:106 *416:180 0.000193564
89 *412:119 *416:180 0.000114492
90 *412:121 *447:18 9.71444e-05
91 *412:123 *447:18 2.30292e-05
92 *412:123 *450:161 4.9253e-06
93 *412:125 *447:18 6.86863e-05
94 *412:125 *450:161 4.19648e-05
95 *412:158 *450:161 9.37731e-05
96 *412:158 *452:32 0.000206824
97 *412:162 *1700:B 2.75229e-05
98 *412:162 *450:161 0.000211586
99 *412:162 *450:170 6.97118e-05
100 *412:182 *452:32 0.000162332
101 *412:222 *413:23 7.75412e-05
102 *412:222 *413:36 5.08304e-06
103 *412:271 *1921:RESET_B 4.70393e-05
104 *412:271 *1995:RESET_B 7.00889e-06
105 *412:271 *438:41 0.000159957
106 *1665:B *1665:A 4.3989e-05
107 *1665:B *412:271 4.85415e-05
108 *1667:A0 *1665:A 4.82919e-05
109 *1667:A0 *412:271 4.66108e-05
110 *1673:B *412:271 4.9968e-05
111 *1703:A1 *412:18 3.64998e-06
112 *1712:A *1705:A 1.46744e-05
113 *1717:B *412:182 0.000116165
114 *1723:B1 *412:119 0.000333496
115 *1731:B1 *1841:B 0.000204907
116 *1731:B1 *412:54 0.000160658
117 *1731:B1 *412:80 0.000179008
118 *1731:B1 *412:91 0.000158297
119 *1731:B1 *412:106 0.000202095
120 *1748:A *1711:A2 1.91597e-05
121 *1758:D *1758:B 4.87005e-05
122 *1776:D *1776:B_N 4.66108e-05
123 *1785:A *1776:B_N 1.19928e-05
124 *1785:A *1785:B 0
125 *1785:A *412:121 1.56428e-05
126 *1786:S *1767:A_N 0.0002823
127 *1794:D *1794:B 0.000229536
128 *1813:D *1758:B 1.91597e-05
129 *1841:A_N *1841:B 0.000257644
130 *1841:D *1841:B 6.33103e-05
131 *1885:D *1885:B 0.000158066
132 *2116:A *1706:A2 0
133 *2116:A *412:10 0
134 *165:21 *1711:A2 7.90461e-05
135 *165:29 *1711:A2 1.61696e-05
136 *209:10 *412:271 0.000108322
137 *228:8 *1702:B 3.76596e-05
138 *228:8 *412:33 6.36578e-05
139 *230:14 *412:119 3.32246e-05
140 *230:25 *412:119 0.000172845
141 *231:12 *1705:A 3.00381e-05
142 *232:10 *1711:A2 0.000102022
143 *261:8 *1749:A_N 4.66108e-05
144 *261:8 *412:106 8.23457e-05
145 *265:26 *1767:A_N 1.34503e-05
146 *266:19 *1767:A_N 9.50342e-06
147 *268:12 *1885:B 8.88715e-05
148 *268:27 *1832:A_N 8.40269e-05
149 *268:38 *1832:A_N 4.82863e-05
150 *270:16 *1758:B 4.66108e-05
151 *271:17 *1711:A2 0
152 *271:17 *412:222 0
153 *271:19 *412:222 0
154 *272:8 *412:222 5.72091e-05
155 *272:14 *1702:B 0
156 *272:14 *1850:B 7.45794e-05
157 *272:14 *412:222 7.21296e-06
158 *272:64 *1832:A_N 0.000630101
159 *272:64 *412:39 0.000342789
160 *278:94 *1804:B 8.49205e-05
161 *407:248 *412:182 0
162 *408:117 *1767:A_N 0.000181376
163 *408:117 *412:158 4.58014e-05
164 *409:94 *1749:A_N 1.83847e-05
165 *409:94 *1841:B 7.21296e-06
166 *409:94 *412:106 2.54431e-05
167 *411:16 *1702:B 3.31103e-05
168 *411:18 *1702:B 4.9253e-06
169 *411:33 *1702:B 0
170 *411:43 *1850:B 8.8266e-05
171 *411:43 *412:39 8.40213e-05
172 *411:45 *1832:A_N 8.23457e-05
173 *411:45 *412:39 7.3151e-05
174 *411:53 *1859:B_N 4.66108e-05
175 *411:64 *1859:B_N 4.66108e-05
176 *411:126 *1758:B 0.000122325
177 *411:244 *1850:B 1.16578e-05
*RES
1 *1995:Q *412:4 1.6 
2 *412:4 *412:10 3.665 
3 *412:10 *412:14 9.35 
4 *412:14 *412:18 2.795 
5 *412:18 *1702:B 6.54 
6 *412:18 *412:33 3.38 
7 *412:33 *412:37 2.19 
8 *412:37 *412:39 4.245 
9 *412:39 *1832:A_N 9.07 
10 *412:39 *412:52 2 
11 *412:52 *412:54 1.89 
12 *412:54 *1841:B 13.02 
13 *412:54 *1804:B 7.86 
14 *412:52 *412:80 2.145 
15 *412:80 *1859:B_N 6.12 
16 *412:80 *412:91 1.89 
17 *412:91 *1885:B 5.085 
18 *412:91 *412:106 5.195 
19 *412:106 *1749:A_N 2.05 
20 *412:106 *412:119 7.93 
21 *412:119 *412:121 1.83 
22 *412:121 *412:123 0.45 
23 *412:123 *412:125 1.14 
24 *412:125 *1767:A_N 9.23 
25 *412:125 *1794:B 6.115 
26 *412:123 *1785:B 1.96 
27 *412:121 *412:158 4.4 
28 *412:158 *412:162 6.935 
29 *412:162 *1710:B 1.96 
30 *412:162 *1705:A 5.86 
31 *412:158 *412:182 3.89 
32 *412:182 *1813:B_N 1.6 
33 *412:182 *1758:B 7.15 
34 *412:119 *1776:B_N 2.395 
35 *412:37 *412:205 2 
36 *412:205 *1850:B 6.54 
37 *412:205 *412:222 3.3 
38 *412:222 *1823:B_N 3.6 
39 *412:222 *1711:A2 10.215 
40 *412:33 *1868:A_N 1.6 
41 *412:14 *1703:B1 1.96 
42 *412:10 *1706:A2 13.14 
43 *412:4 *412:271 18.175 
44 *412:271 *1666:A 1.6 
45 *412:271 *1665:A 3.1 
*END

*D_NET *413 0.00997333
*CONN
*I *1671:A I *D sky130_fd_sc_hd__or2_1
*I *1668:A I *D sky130_fd_sc_hd__nand2_1
*I *1706:B1 I *D sky130_fd_sc_hd__a31o_1
*I *1711:A3 I *D sky130_fd_sc_hd__a41o_1
*I *1748:B I *D sky130_fd_sc_hd__nor2_2
*I *1709:B I *D sky130_fd_sc_hd__and2_2
*I *1822:B I *D sky130_fd_sc_hd__nor2_2
*I *1803:B I *D sky130_fd_sc_hd__and2_2
*I *1708:A I *D sky130_fd_sc_hd__xnor2_1
*I *1707:A I *D sky130_fd_sc_hd__xor2_1
*I *1996:Q O *D sky130_fd_sc_hd__dfrtp_4
*CAP
1 *1671:A 6.7342e-05
2 *1668:A 0
3 *1706:B1 7.35178e-05
4 *1711:A3 0
5 *1748:B 2.01015e-05
6 *1709:B 0.000105935
7 *1822:B 1.11992e-05
8 *1803:B 0.000130858
9 *1708:A 0
10 *1707:A 0
11 *1996:Q 0
12 *413:116 0.000448207
13 *413:80 0.00041836
14 *413:76 0.00103165
15 *413:64 0.00109644
16 *413:58 0.000817989
17 *413:36 0.000399071
18 *413:23 0.000483367
19 *413:10 0.00115443
20 *413:4 0.00108161
21 *1706:B1 *1925:D 9.49289e-05
22 *1709:B *1709:A 3.00381e-05
23 *413:10 *1996:D 0.000238919
24 *413:10 *1996:RESET_B 3.38342e-05
25 *413:10 *2000:CLK 4.00896e-05
26 *413:23 *1996:D 0
27 *413:23 *2000:CLK 1.16578e-05
28 *413:36 *1624:A 0.000124007
29 *413:36 *450:226 5.02217e-05
30 *413:58 *1925:D 0
31 *413:58 *1926:D 0
32 *413:64 *1925:D 0.000130547
33 *413:76 *1706:A3 0.000365159
34 *413:76 *2000:CLK 0
35 *413:76 *2000:D 2.86265e-06
36 *413:76 *2000:RESET_B 0.000124895
37 *413:80 *1706:A3 3.09525e-05
38 *413:80 *1711:B1 0.000234685
39 *413:80 *2000:D 1.08758e-05
40 *1668:B *1671:A 4.99619e-05
41 *1672:B1 *1671:A 0.000164874
42 *1704:B *413:23 0
43 *1704:B *413:36 0
44 *1706:A2 *1706:B1 0.000125634
45 *1706:A2 *413:64 0.000181145
46 *1711:A1 *413:76 0
47 *1711:A2 *413:36 0
48 *1711:A2 *413:80 2.66586e-05
49 *1803:A *1803:B 0.000107056
50 *1803:A *1822:B 9.53428e-06
51 *1803:A *413:36 4.60584e-05
52 *1850:B *413:23 2.97004e-06
53 *1885:D *1803:B 4.0843e-05
54 *199:18 *1671:A 8.8266e-05
55 *228:8 *413:23 0
56 *261:8 *1709:B 4.58257e-05
57 *261:8 *413:80 4.9253e-06
58 *409:94 *1709:B 4.66108e-05
59 *412:37 *413:23 8.65905e-05
60 *412:222 *413:23 7.75412e-05
61 *412:222 *413:36 5.08304e-06
*RES
1 *1996:Q *413:4 1.6 
2 *413:4 *413:10 11.085 
3 *413:10 *1707:A 1.6 
4 *413:10 *413:23 6.335 
5 *413:23 *1708:A 3.6 
6 *413:23 *413:36 6.5 
7 *413:36 *1803:B 3.79 
8 *413:36 *1822:B 1.96 
9 *413:4 *413:58 6.4 
10 *413:58 *413:64 8.195 
11 *413:64 *413:76 15.87 
12 *413:76 *413:80 5.025 
13 *413:80 *1709:B 3.7 
14 *413:80 *1748:B 2.215 
15 *413:76 *1711:A3 1.6 
16 *413:64 *1706:B1 6.255 
17 *413:58 *413:116 5.745 
18 *413:116 *1668:A 1.6 
19 *413:116 *1671:A 3.79 
*END

*D_NET *414 0.00157682
*CONN
*I *1711:B1 I *D sky130_fd_sc_hd__a41o_1
*I *1624:A I *D sky130_fd_sc_hd__inv_2
*I *1822:A I *D sky130_fd_sc_hd__nor2_2
*I *1709:A I *D sky130_fd_sc_hd__and2_2
*I *1997:Q O *D sky130_fd_sc_hd__dfrtp_1
*CAP
1 *1711:B1 4.86746e-05
2 *1624:A 2.26738e-05
3 *1822:A 0
4 *1709:A 1.39154e-05
5 *1997:Q 4.15698e-05
6 *414:29 0.000127942
7 *414:25 0.000229332
8 *414:8 0.000130874
9 *1709:B *1709:A 3.00381e-05
10 *1711:A2 *1711:B1 1.61831e-05
11 *1711:A2 *414:25 1.46411e-05
12 *1711:A2 *414:29 9.86611e-05
13 *1748:A *1711:B1 0.000122337
14 *1803:A *1624:A 0.000122337
15 *232:10 *1711:B1 4.21973e-05
16 *232:10 *414:8 5.21046e-05
17 *261:8 *1709:A 4.82863e-05
18 *271:17 *414:29 1.0183e-05
19 *409:94 *414:29 0
20 *411:153 *1709:A 8.66107e-06
21 *411:153 *414:8 3.75134e-05
22 *411:153 *414:25 0
23 *411:153 *414:29 0
24 *413:36 *1624:A 0.000124007
25 *413:80 *1711:B1 0.000234685
*RES
1 *1997:Q *414:8 4.8525 
2 *414:8 *1709:A 4.2825 
3 *414:8 *414:25 1.3875 
4 *414:25 *414:29 4.145 
5 *414:29 *1822:A 1.6 
6 *414:29 *1624:A 2.74 
7 *414:25 *1711:B1 5.775 
*END

*D_NET *415 0.00222306
*CONN
*I *2071:A I *D sky130_fd_sc_hd__clkbuf_16
*I *2070:A I *D sky130_fd_sc_hd__clkbuf_16
*I *2068:X O *D sky130_fd_sc_hd__clkbuf_16
*CAP
1 *2071:A 0.000339426
2 *2070:A 0.000268001
3 *2068:X 0
4 *415:4 0.000607427
5 *2071:A *2027:CLK 5.43869e-05
6 *2071:A *2027:D 3.18219e-05
7 *2071:A *2027:RESET_B 0.00042877
8 *2071:A *2033:D 0
9 *1684:B *2071:A 0.00013521
10 *1685:C *2070:A 0.000187752
11 *1685:C *2071:A 3.49733e-05
12 *1687:B *2070:A 5.93844e-05
13 *219:21 *2070:A 5.13029e-05
14 *220:8 *2070:A 2.46007e-05
15 *409:16 *2070:A 0
*RES
1 *2068:X *415:4 1.6 
2 *415:4 *2070:A 11 
3 *415:4 *2071:A 13.46 
*END

*D_NET *416 0.047359
*CONN
*I *2085:A I *D sky130_fd_sc_hd__clkbuf_8
*I *2084:A I *D sky130_fd_sc_hd__clkbuf_8
*I *2083:A I *D sky130_fd_sc_hd__clkbuf_8
*I *2082:A I *D sky130_fd_sc_hd__clkbuf_8
*I *2078:A I *D sky130_fd_sc_hd__clkbuf_8
*I *2077:A I *D sky130_fd_sc_hd__clkbuf_8
*I *2073:A I *D sky130_fd_sc_hd__clkbuf_8
*I *2074:A I *D sky130_fd_sc_hd__clkbuf_8
*I *2076:A I *D sky130_fd_sc_hd__clkbuf_8
*I *2075:A I *D sky130_fd_sc_hd__clkbuf_8
*I *2087:A I *D sky130_fd_sc_hd__clkbuf_8
*I *2086:A I *D sky130_fd_sc_hd__clkbuf_8
*I *2081:A I *D sky130_fd_sc_hd__clkbuf_8
*I *2079:A I *D sky130_fd_sc_hd__clkbuf_8
*I *2072:A I *D sky130_fd_sc_hd__clkbuf_8
*I *2080:A I *D sky130_fd_sc_hd__clkbuf_8
*I *2069:X O *D sky130_fd_sc_hd__clkbuf_16
*CAP
1 *2085:A 0.000563707
2 *2084:A 0
3 *2083:A 0
4 *2082:A 0.000630574
5 *2078:A 0.000356783
6 *2077:A 0
7 *2073:A 0.00123817
8 *2074:A 0
9 *2076:A 0.000560741
10 *2075:A 0
11 *2087:A 5.08917e-05
12 *2086:A 0.000900787
13 *2081:A 0
14 *2079:A 0.000442114
15 *2072:A 0.000214413
16 *2080:A 0.00070813
17 *2069:X 0
18 *416:184 0.00100385
19 *416:182 0.000390362
20 *416:180 0.00150762
21 *416:138 0.003421
22 *416:124 0.00242822
23 *416:120 0.00111985
24 *416:105 0.00116516
25 *416:96 0.000546575
26 *416:92 0.00171662
27 *416:66 0.00121328
28 *416:45 0.0015638
29 *416:39 0.00108912
30 *416:22 0.00127209
31 *416:20 0.00231714
32 *416:4 0.00200339
33 *2076:A *422:12 0.000307043
34 *2078:A *425:12 5.57814e-05
35 *2078:A *452:150 0.000115438
36 *2079:A *2007:CLK 7.22354e-05
37 *2079:A *426:6 0.000158681
38 *2079:A *426:28 5.74791e-05
39 *2079:A *426:79 0.000107424
40 *2080:A *2067:CLK 3.83041e-05
41 *2080:A *427:6 4.82919e-05
42 *2082:A *429:10 0.000191243
43 *2082:A *451:86 2.33678e-05
44 *2085:A *431:6 0.000307049
45 *2085:A *431:70 0.00042453
46 *2086:A *453:131 0.000283267
47 *416:20 *436:77 2.67022e-05
48 *416:39 *1876:A0 3.83041e-05
49 *416:39 *436:79 8.40269e-05
50 *416:45 *2007:CLK 6.9451e-05
51 *416:45 *455:73 3.38982e-05
52 *416:66 *1770:A0 0
53 *416:92 *1750:A0 0.000198939
54 *416:92 *451:119 9.80032e-06
55 *416:96 *1795:A1 6.57653e-06
56 *416:96 *447:18 0.000351854
57 *416:96 *451:141 0
58 *416:96 *451:143 0
59 *416:105 *451:143 0
60 *416:105 *451:158 0
61 *416:120 *1759:A1 0
62 *416:120 *452:150 0.000118197
63 *416:138 *1780:A1 2.09673e-05
64 *416:180 *1767:B 0.000157555
65 *416:182 *2020:CLK 2.14129e-05
66 *416:184 *2020:CLK 0.00018305
67 *1645:A1 *416:138 9.50342e-06
68 *1645:A2 *2073:A 1.02931e-05
69 *1645:A3 *2073:A 5.44207e-05
70 *1646:B *2073:A 7.67345e-05
71 *1649:A1 *416:22 0.000112182
72 *1652:B1 *416:138 9.28092e-05
73 *1657:A1 *2080:A 2.76356e-05
74 *1657:A2 *2080:A 8.88715e-05
75 *1657:A2 *416:45 0.000116853
76 *1716:A2 *416:96 5.23362e-05
77 *1721:A0 *2082:A 0.000131973
78 *1721:A2 *2082:A 6.33739e-05
79 *1723:B1 *2082:A 7.89689e-05
80 *1723:B1 *416:180 0.00044037
81 *1723:B1 *416:182 1.26626e-05
82 *1723:B1 *416:184 0.000426764
83 *1724:A0 *2078:A 0.000199939
84 *1730:A0 *416:180 0
85 *1730:A0 *416:184 0
86 *1730:A1 *416:180 3.86607e-05
87 *1730:A1 *416:182 2.78732e-05
88 *1730:A1 *416:184 7.63204e-05
89 *1731:B1 *416:180 1.79098e-05
90 *1731:B2 *2078:A 0.000416923
91 *1734:A1 *2086:A 4.23612e-05
92 *1734:A1 *416:66 1.82476e-05
93 *1734:A3 *2086:A 9.18292e-06
94 *1734:A3 *416:66 8.07785e-05
95 *1734:S0 *416:22 0.00057246
96 *1734:S0 *416:66 0.000613962
97 *1767:A_N *416:180 4.21973e-05
98 *1767:C *416:180 2.49909e-05
99 *1769:A1 *416:124 7.23635e-05
100 *1770:A1 *416:66 1.73877e-05
101 *1779:A0 *2087:A 0
102 *1779:A0 *416:66 0
103 *1786:A1 *416:92 0.000109625
104 *1786:A1 *416:96 6.54674e-05
105 *1786:S *416:92 2.96334e-05
106 *1786:S *416:180 5.21706e-05
107 *1825:A0 *2085:A 4.47209e-05
108 *1826:S *416:45 0
109 *1830:A0 *416:22 2.17782e-05
110 *1841:B *416:180 0.000179015
111 *1858:S *2080:A 0.000130065
112 *1858:S *416:22 3.9065e-05
113 *1871:S *2080:A 0.000185405
114 *1871:S *416:45 0
115 *1875:A1 *416:22 5.20968e-05
116 *1876:A1 *2080:A 2.8185e-05
117 *1877:A1 *416:120 2.67022e-05
118 *1893:A0 *2080:A 2.49909e-05
119 *1930:D *416:120 0
120 *1940:D *416:66 0.000270633
121 *1946:D *2076:A 0.000235858
122 *1948:D *2087:A 4.94404e-05
123 *1948:D *416:66 5.18691e-05
124 *1952:D *416:138 6.8102e-05
125 *1974:D *416:45 7.89767e-05
126 *2051:D *416:45 0.000139245
127 *2053:D *2078:A 7.07407e-05
128 *2053:D *416:120 0.000164679
129 *2057:D *416:20 1.43717e-05
130 *2058:D *2073:A 0.000277114
131 *2061:D *416:184 9.37731e-05
132 *2067:D *2080:A 0.00020076
133 *2069:A *416:20 0.00172774
134 *163:22 *416:138 1.26548e-05
135 *164:18 *416:138 0.000146115
136 *230:14 *416:180 7.23533e-05
137 *253:12 *416:45 0
138 *263:110 *416:138 4.92014e-05
139 *264:16 *2076:A 0.000374368
140 *265:26 *416:180 2.72581e-05
141 *266:65 *2073:A 0.000296006
142 *270:91 *2078:A 0.000167621
143 *270:91 *416:120 0
144 *277:38 *416:39 0.000122325
145 *303:10 *2076:A 3.45588e-05
146 *305:8 *416:66 0
147 *312:6 *416:124 0.000318091
148 *357:10 *416:22 0.000337517
149 *379:10 *416:45 0.000197415
150 *407:61 *2073:A 3.57474e-05
151 *407:265 *416:96 0
152 *407:295 *416:45 0
153 *407:311 *416:45 0
154 *407:373 *2080:A 3.04396e-05
155 *407:373 *416:22 0.000504659
156 *407:373 *416:45 0
157 *407:449 *2082:A 0.000619587
158 *408:80 *416:120 0.000141152
159 *408:90 *416:96 3.62236e-05
160 *408:90 *416:105 5.42386e-05
161 *408:90 *416:120 7.97165e-05
162 *408:142 *2082:A 0.000198286
163 *408:142 *416:184 0.000684882
164 *408:146 *2082:A 5.4003e-05
165 *408:249 *416:45 0.000377651
166 *408:257 *416:45 1.92979e-05
167 *408:431 *2087:A 1.22762e-05
168 *409:94 *416:180 0
169 *409:98 *416:180 0
170 *409:98 *416:184 0
171 *410:39 *2078:A 0.000416923
172 *411:53 *416:180 0.000179008
173 *411:111 *416:96 0.000484137
174 *411:126 *416:96 6.01072e-05
175 *412:54 *416:180 0.000152127
176 *412:80 *416:180 0.000170477
177 *412:91 *416:180 0.000149766
178 *412:106 *416:180 0.000193564
179 *412:119 *416:180 0.000114492
*RES
1 *2069:X *416:4 1.6 
2 *416:4 *416:20 31.35 
3 *416:20 *416:22 12.6 
4 *416:22 *2080:A 16.71 
5 *416:22 *416:39 5.225 
6 *416:39 *416:45 22.975 
7 *416:45 *2072:A 4.465 
8 *416:45 *2079:A 8.95 
9 *416:39 *2081:A 1.6 
10 *416:20 *416:66 8.265 
11 *416:66 *2086:A 14.07 
12 *416:66 *2087:A 4.725 
13 *416:4 *416:92 5.4 
14 *416:92 *416:96 13.07 
15 *416:96 *2075:A 3.6 
16 *416:96 *416:105 1.635 
17 *416:105 *2076:A 14.52 
18 *416:105 *416:120 11.07 
19 *416:120 *416:124 6.935 
20 *416:124 *416:138 12.3359 
21 *416:138 *2074:A 1.6 
22 *416:138 *2073:A 17.17 
23 *416:124 *2077:A 1.6 
24 *416:120 *2078:A 13.86 
25 *416:92 *416:180 21.425 
26 *416:180 *416:182 0.615 
27 *416:182 *416:184 12.345 
28 *416:184 *2082:A 16.995 
29 *416:184 *2083:A 3.6 
30 *416:182 *2084:A 3.6 
31 *416:180 *2085:A 11.31 
*END

*D_NET *417 0.0172362
*CONN
*I *1913:CLK I *D sky130_fd_sc_hd__dfxtp_1
*I *2029:CLK I *D sky130_fd_sc_hd__dfrtp_4
*I *2034:CLK I *D sky130_fd_sc_hd__dfrtp_1
*I *2033:CLK I *D sky130_fd_sc_hd__dfrtp_1
*I *2028:CLK I *D sky130_fd_sc_hd__dfrtp_4
*I *2095:A I *D sky130_fd_sc_hd__inv_4
*I *1914:CLK I *D sky130_fd_sc_hd__dfxtp_1
*I *1918:CLK I *D sky130_fd_sc_hd__dfxtp_1
*I *1915:CLK I *D sky130_fd_sc_hd__dfxtp_1
*I *1919:CLK I *D sky130_fd_sc_hd__dfxtp_1
*I *1916:CLK I *D sky130_fd_sc_hd__dfxtp_1
*I *1917:CLK I *D sky130_fd_sc_hd__dfxtp_1
*I *2070:X O *D sky130_fd_sc_hd__clkbuf_16
*CAP
1 *1913:CLK 0.000247944
2 *2029:CLK 3.21411e-05
3 *2034:CLK 0
4 *2033:CLK 0.000412174
5 *2028:CLK 0
6 *2095:A 2.08101e-05
7 *1914:CLK 0.000248055
8 *1918:CLK 0.000536424
9 *1915:CLK 3.37585e-05
10 *1919:CLK 2.439e-05
11 *1916:CLK 7.28598e-05
12 *1917:CLK 0.000908561
13 *2070:X 2.66025e-05
14 *417:108 0.000672717
15 *417:102 0.000524604
16 *417:91 0.000764892
17 *417:87 0.000842346
18 *417:49 0.000570183
19 *417:47 0.000336284
20 *417:36 0.000187573
21 *417:23 0.000309154
22 *417:12 0.00162489
23 *417:8 0.000662568
24 *417:6 0.000174802
25 *1913:CLK *452:14 0
26 *1917:CLK *422:26 5.72633e-05
27 *1917:CLK *424:14 0.000232258
28 *1917:CLK *424:50 0.000156251
29 *1917:CLK *424:65 0.000553269
30 *1918:CLK *1895:CLK 8.65961e-05
31 *1918:CLK *2122:A 0.000215306
32 *2033:CLK *2033:D 0
33 *417:108 *2033:D 1.01745e-05
34 *417:108 *2034:D 0
35 *1689:B *417:91 5.05521e-05
36 *1689:B *417:102 6.19997e-05
37 *1691:B *417:108 0
38 *1726:A1 *1913:CLK 0
39 *1726:S0 *1913:CLK 0.000102199
40 *1726:S0 *417:87 1.7379e-05
41 *1727:A1 *417:87 6.55328e-05
42 *1727:A2 *1913:CLK 1.15688e-05
43 *1727:A2 *417:87 1.1561e-05
44 *1727:A2 *417:91 4.41506e-05
45 *1727:B1 *417:87 0.000136884
46 *1747:A2 *417:12 4.66108e-05
47 *1747:B1 *1917:CLK 0.0010832
48 *1747:B1 *417:12 0.0001022
49 *1747:B2 *417:12 8.65905e-05
50 *1781:A0 *1917:CLK 7.23602e-05
51 *1914:D *1914:CLK 7.50746e-05
52 *1914:D *417:47 1.82476e-05
53 *1915:D *1917:CLK 7.70758e-05
54 *1915:D *1918:CLK 3.36661e-05
55 *1915:D *417:12 1.19928e-05
56 *1915:D *417:23 0.000461856
57 *1915:D *417:36 0.000203762
58 *1915:D *417:47 0.000139245
59 *1916:D *1916:CLK 0.0001111
60 *1918:D *417:12 0.0011769
61 *1919:D *1919:CLK 8.40269e-05
62 *1919:D *417:23 0.000245015
63 *1919:D *417:36 0.000107658
64 *1919:D *417:47 1.07797e-05
65 *1950:D *1917:CLK 9.30787e-05
66 *1979:D *1913:CLK 9.14049e-05
67 *2068:A *2033:CLK 0
68 *164:73 *1917:CLK 0
69 *221:8 *417:102 0.00016063
70 *221:12 *2029:CLK 0.000141606
71 *221:12 *417:108 4.9968e-05
72 *222:8 *417:108 0
73 *262:36 *1919:CLK 4.66826e-05
74 *264:68 *1917:CLK 0
75 *265:34 *1917:CLK 0
76 *266:35 *1916:CLK 6.27438e-05
77 *392:10 *417:91 4.22057e-05
78 *408:30 *1913:CLK 0.000332795
79 *408:30 *417:91 0.000132313
80 *408:570 *417:91 0.000122325
81 *409:32 *417:6 8.40269e-05
82 *409:32 *417:8 7.49327e-05
83 *409:38 *417:8 0.000160641
84 *409:38 *417:12 8.23457e-05
85 *410:10 *2029:CLK 0.000133075
86 *410:10 *417:108 4.9968e-05
87 *410:16 *417:108 0.000163019
88 *410:22 *417:6 1.83847e-05
*RES
1 *2070:X *417:6 2.395 
2 *417:6 *417:8 2.175 
3 *417:8 *417:12 15.215 
4 *417:12 *1917:CLK 28.44 
5 *417:12 *417:23 5.46 
6 *417:23 *1916:CLK 5.445 
7 *417:23 *417:36 2.4 
8 *417:36 *1919:CLK 4.395 
9 *417:36 *417:47 2.145 
10 *417:47 *417:49 2 
11 *417:49 *1915:CLK 2.05 
12 *417:49 *1918:CLK 11.365 
13 *417:47 *1914:CLK 7.335 
14 *417:8 *2095:A 1.96 
15 *417:6 *417:87 3.89 
16 *417:87 *417:91 11.075 
17 *417:91 *2028:CLK 1.6 
18 *417:91 *417:102 5.915 
19 *417:102 *417:108 5.25 
20 *417:108 *2033:CLK 10.05 
21 *417:108 *2034:CLK 3.6 
22 *417:102 *2029:CLK 5.235 
23 *417:87 *1913:CLK 9.57 
*END

*D_NET *418 0.013218
*CONN
*I *1904:CLK I *D sky130_fd_sc_hd__dfrtp_1
*I *1909:CLK I *D sky130_fd_sc_hd__dfrtp_1
*I *1903:CLK I *D sky130_fd_sc_hd__dfrtp_1
*I *1908:CLK I *D sky130_fd_sc_hd__dfrtp_1
*I *1912:CLK I *D sky130_fd_sc_hd__dfxtp_1
*I *1906:CLK I *D sky130_fd_sc_hd__dfrtp_1
*I *2031:CLK I *D sky130_fd_sc_hd__dfrtp_4
*I *2030:CLK I *D sky130_fd_sc_hd__dfrtp_4
*I *2035:CLK I *D sky130_fd_sc_hd__dfrtp_1
*I *1911:CLK I *D sky130_fd_sc_hd__dfrtp_1
*I *1902:CLK I *D sky130_fd_sc_hd__dfrtp_1
*I *1905:CLK I *D sky130_fd_sc_hd__dfrtp_1
*I *2032:CLK I *D sky130_fd_sc_hd__dfrtp_1
*I *2027:CLK I *D sky130_fd_sc_hd__dfrtp_4
*I *1910:CLK I *D sky130_fd_sc_hd__dfrtp_1
*I *1907:CLK I *D sky130_fd_sc_hd__dfrtp_1
*I *2071:X O *D sky130_fd_sc_hd__clkbuf_16
*CAP
1 *1904:CLK 0
2 *1909:CLK 8.56302e-05
3 *1903:CLK 0.000264503
4 *1908:CLK 0.000719112
5 *1912:CLK 0.000205252
6 *1906:CLK 0.000258556
7 *2031:CLK 0
8 *2030:CLK 2.32329e-05
9 *2035:CLK 0.000103289
10 *1911:CLK 0
11 *1902:CLK 2.49681e-05
12 *1905:CLK 0
13 *2032:CLK 0
14 *2027:CLK 0.000260234
15 *1910:CLK 0
16 *1907:CLK 0.000171069
17 *2071:X 0
18 *418:141 0.00101827
19 *418:139 0.000412398
20 *418:137 0.000187593
21 *418:135 0.00065171
22 *418:110 0.000190111
23 *418:97 0.000472396
24 *418:84 0.000303535
25 *418:80 0.000706708
26 *418:65 0.000529803
27 *418:22 0.000310307
28 *418:20 0.000418103
29 *418:16 0.000294835
30 *418:12 0.000370756
31 *418:8 0.00029688
32 *418:4 0.000648072
33 *1902:CLK *2033:RESET_B 8.65961e-05
34 *1902:CLK *460:10 3.00381e-05
35 *1903:CLK *1903:D 7.35813e-05
36 *1906:CLK *1906:RESET_B 5.0751e-05
37 *1907:CLK *1910:D 0
38 *1908:CLK *1908:RESET_B 0.00028734
39 *1908:CLK *1923:CLK 8.63479e-05
40 *1912:CLK *1909:D 0.000196998
41 *1912:CLK *1911:D 0.000104585
42 *2030:CLK *2030:RESET_B 2.75145e-05
43 *418:12 *1902:D 0
44 *418:16 *1905:D 7.35813e-05
45 *418:16 *2032:D 6.90876e-05
46 *418:20 *2032:D 8.65961e-05
47 *418:22 *1910:D 0
48 *418:65 *1902:D 0
49 *418:84 *446:121 8.78735e-05
50 *418:84 *446:131 1.26626e-05
51 *418:97 *2035:D 4.91742e-05
52 *418:97 *446:131 0.000196464
53 *418:97 *446:135 1.98826e-05
54 *418:110 *1697:A 0
55 *418:110 *2030:D 0
56 *418:110 *2035:D 0.000131408
57 *418:110 *446:135 0.000117436
58 *418:135 *1674:A_N 7.23533e-05
59 *418:135 *1911:D 0.000256406
60 *418:135 *1927:D 1.56428e-05
61 *418:135 *446:12 7.81876e-05
62 *418:135 *446:49 9.68709e-05
63 *418:135 *446:59 4.55632e-05
64 *418:135 *461:14 2.8185e-05
65 *418:137 *1911:D 8.7974e-05
66 *418:137 *446:12 8.7974e-05
67 *418:137 *446:14 4.43871e-06
68 *418:139 *1909:D 0.000164686
69 *418:139 *1911:D 0.000113745
70 *418:139 *446:14 2.4997e-05
71 *418:141 *1909:D 0.00034058
72 *418:141 *1911:D 0.000190158
73 *1684:B *2027:CLK 2.67022e-05
74 *1912:D *1908:CLK 1.56428e-05
75 *1912:D *1912:CLK 0.000311288
76 *2068:A *418:12 0
77 *2068:A *418:65 0
78 *2068:A *418:80 0
79 *2071:A *2027:CLK 5.43869e-05
80 *216:18 *418:16 0.000457339
81 *216:18 *418:20 2.96426e-05
82 *216:22 *2027:CLK 0
*RES
1 *2071:X *418:4 1.6 
2 *418:4 *418:8 2.45 
3 *418:8 *418:12 3.38 
4 *418:12 *418:16 7.365 
5 *418:16 *418:20 2.795 
6 *418:20 *418:22 2.145 
7 *418:22 *1907:CLK 6.285 
8 *418:22 *1910:CLK 3.6 
9 *418:20 *2027:CLK 7.335 
10 *418:16 *2032:CLK 1.6 
11 *418:12 *1905:CLK 1.6 
12 *418:8 *418:65 2.655 
13 *418:65 *1902:CLK 4.395 
14 *418:65 *418:80 7.355 
15 *418:80 *418:84 4.145 
16 *418:84 *1911:CLK 3.6 
17 *418:84 *418:97 4.995 
18 *418:97 *2035:CLK 5.085 
19 *418:97 *418:110 5.93 
20 *418:110 *2030:CLK 2.05 
21 *418:110 *2031:CLK 1.6 
22 *418:80 *1906:CLK 5.5 
23 *418:4 *418:135 12.395 
24 *418:135 *418:137 1.89 
25 *418:137 *418:139 2.4 
26 *418:139 *418:141 3.93 
27 *418:141 *1912:CLK 8.865 
28 *418:141 *1908:CLK 15.555 
29 *418:139 *1903:CLK 7.5 
30 *418:137 *1909:CLK 4.755 
31 *418:135 *1904:CLK 3.6 
*END

*D_NET *419 0.0095172
*CONN
*I *2038:CLK I *D sky130_fd_sc_hd__dfxtp_1
*I *1974:CLK I *D sky130_fd_sc_hd__dfxtp_1
*I *2005:CLK I *D sky130_fd_sc_hd__dfxtp_1
*I *2015:CLK I *D sky130_fd_sc_hd__dfxtp_1
*I *2088:A I *D sky130_fd_sc_hd__clkbuf_8
*I *2021:CLK I *D sky130_fd_sc_hd__dfxtp_1
*I *2064:CLK I *D sky130_fd_sc_hd__dfxtp_1
*I *1988:CLK I *D sky130_fd_sc_hd__dfxtp_1
*I *2046:CLK I *D sky130_fd_sc_hd__dfxtp_1
*I *2062:CLK I *D sky130_fd_sc_hd__dfxtp_1
*I *2013:CLK I *D sky130_fd_sc_hd__dfxtp_1
*I *1972:CLK I *D sky130_fd_sc_hd__dfxtp_1
*I *2072:X O *D sky130_fd_sc_hd__clkbuf_8
*CAP
1 *2038:CLK 0
2 *1974:CLK 0.00013512
3 *2005:CLK 0.000129159
4 *2015:CLK 0.00015417
5 *2088:A 0
6 *2021:CLK 0
7 *2064:CLK 0.000112348
8 *1988:CLK 0.000120462
9 *2046:CLK 0
10 *2062:CLK 0.000329906
11 *2013:CLK 0
12 *1972:CLK 0.000319774
13 *2072:X 6.26211e-05
14 *419:113 0.000315518
15 *419:100 0.000245252
16 *419:70 0.000380938
17 *419:63 0.000468596
18 *419:59 0.000397773
19 *419:44 0.000838871
20 *419:18 0.000574527
21 *419:14 0.00121176
22 *419:12 0.00056068
23 *419:8 7.51708e-05
24 *419:6 6.26211e-05
25 *419:14 *453:57 0.000269916
26 *1738:A0 *1974:CLK 0.000201508
27 *1738:A0 *419:12 0.00013994
28 *1738:A0 *419:100 0.000186099
29 *1738:A0 *419:113 0.000162325
30 *1738:A1 *1974:CLK 1.33285e-05
31 *1738:A1 *2005:CLK 4.41506e-05
32 *1738:S *1974:CLK 0.000277223
33 *1835:A1 *419:14 4.18482e-05
34 *1853:S *2064:CLK 0.000115146
35 *1888:S *419:12 0.000141606
36 *1888:S *419:100 0.000179922
37 *1888:S *419:113 0.000175894
38 *1988:D *1988:CLK 0
39 *2005:D *419:14 0.000198517
40 *2013:D *1972:CLK 0
41 *2013:D *419:18 0.000128642
42 *2015:D *419:113 0
43 *2021:D *419:63 0.000313643
44 *2046:D *1988:CLK 1.0183e-05
45 *2046:D *2064:CLK 0.000112349
46 *2046:D *419:70 0.00020076
47 *253:12 *1974:CLK 3.00381e-05
48 *337:10 *2064:CLK 2.11084e-05
49 *345:8 *1988:CLK 0
50 *353:12 *419:63 2.11084e-05
51 *353:12 *419:70 4.9253e-06
52 *377:10 *419:14 3.17501e-05
*RES
1 *2072:X *419:6 2.395 
2 *419:6 *419:8 2 
3 *419:8 *419:12 3.635 
4 *419:12 *419:14 8.73 
5 *419:14 *419:18 3.915 
6 *419:18 *1972:CLK 10.67 
7 *419:18 *2013:CLK 1.6 
8 *419:14 *419:44 9.035 
9 *419:44 *2062:CLK 8.265 
10 *419:44 *419:59 3.14 
11 *419:59 *419:63 5.985 
12 *419:63 *2046:CLK 1.6 
13 *419:63 *419:70 2.865 
14 *419:70 *1988:CLK 7.49 
15 *419:70 *2064:CLK 4.465 
16 *419:59 *2021:CLK 1.6 
17 *419:12 *2088:A 1.6 
18 *419:8 *419:100 2.145 
19 *419:100 *2015:CLK 5.775 
20 *419:100 *419:113 4.145 
21 *419:113 *2005:CLK 3.43 
22 *419:113 *1974:CLK 5.5 
23 *419:6 *2038:CLK 1.6 
*END

*D_NET *420 0.00893564
*CONN
*I *2058:CLK I *D sky130_fd_sc_hd__dfxtp_1
*I *1985:CLK I *D sky130_fd_sc_hd__dfxtp_1
*I *1968:CLK I *D sky130_fd_sc_hd__dfxtp_1
*I *1936:CLK I *D sky130_fd_sc_hd__dfxtp_1
*I *1982:CLK I *D sky130_fd_sc_hd__dfxtp_1
*I *2103:A I *D sky130_fd_sc_hd__clkbuf_8
*I *1958:CLK I *D sky130_fd_sc_hd__dfxtp_1
*I *1898:CLK I *D sky130_fd_sc_hd__dfxtp_1
*I *1966:CLK I *D sky130_fd_sc_hd__dfxtp_1
*I *1901:CLK I *D sky130_fd_sc_hd__dfxtp_1
*I *1969:CLK I *D sky130_fd_sc_hd__dfxtp_1
*I *1961:CLK I *D sky130_fd_sc_hd__dfxtp_1
*I *2073:X O *D sky130_fd_sc_hd__clkbuf_8
*CAP
1 *2058:CLK 0
2 *1985:CLK 0
3 *1968:CLK 0.000486155
4 *1936:CLK 0
5 *1982:CLK 0.000381163
6 *2103:A 0
7 *1958:CLK 0.00015386
8 *1898:CLK 0
9 *1966:CLK 0.000201059
10 *1901:CLK 0
11 *1969:CLK 0.000127281
12 *1961:CLK 0
13 *2073:X 0.000164404
14 *420:121 0.000708784
15 *420:97 0.000517589
16 *420:59 0.000310093
17 *420:57 0.000360785
18 *420:35 0.000296118
19 *420:22 0.000479255
20 *420:16 0.000888096
21 *420:14 0.000637276
22 *420:12 0.000382804
23 *420:8 0.000311519
24 *420:6 0.000164404
25 *1968:CLK *436:36 4.28483e-05
26 *1968:CLK *436:48 3.26653e-05
27 *1968:CLK *457:8 8.14709e-05
28 *1968:CLK *457:10 0
29 *1968:CLK *457:12 0
30 *1968:CLK *457:172 0
31 *420:16 *436:10 8.31173e-05
32 *420:22 *436:10 4.80182e-05
33 *420:22 *436:21 0
34 *420:35 *436:21 0
35 *1631:S1 *1982:CLK 0.000179068
36 *1653:S0 *1982:CLK 0
37 *1653:S0 *420:12 0.000186099
38 *1653:S0 *420:121 0.000174512
39 *1757:S *1968:CLK 0
40 *1799:A0 *1966:CLK 0.000198939
41 *1799:S *1966:CLK 0
42 *1799:S *1969:CLK 0.000166346
43 *1799:S *420:22 0
44 *1799:S *420:35 0
45 *1799:S *420:57 0
46 *1799:S *420:59 0
47 *1821:A0 *1968:CLK 7.63204e-05
48 *1821:A0 *420:121 0.000103823
49 *1821:S *1968:CLK 1.71013e-05
50 *1958:D *1958:CLK 0.000128642
51 *1958:D *1966:CLK 6.14689e-05
52 *1958:D *420:59 7.75325e-05
53 *1961:D *420:22 0
54 *1966:D *1966:CLK 4.61936e-05
55 *1968:D *1968:CLK 0.000105777
56 *1969:D *1969:CLK 0
57 *1985:D *1968:CLK 0.000137571
58 *1985:D *420:121 7.26443e-05
59 *262:115 *1982:CLK 0
60 *266:65 *420:6 0.000344834
61 *266:71 *420:57 0
*RES
1 *2073:X *420:6 4.81 
2 *420:6 *420:8 2 
3 *420:8 *420:12 4.145 
4 *420:12 *420:14 2.175 
5 *420:14 *420:16 7.695 
6 *420:16 *420:22 7.325 
7 *420:22 *1961:CLK 3.6 
8 *420:22 *420:35 4.85 
9 *420:35 *1969:CLK 8.285 
10 *420:35 *1901:CLK 1.6 
11 *420:16 *420:57 3.635 
12 *420:57 *420:59 2.4 
13 *420:59 *1966:CLK 8.025 
14 *420:59 *1898:CLK 3.6 
15 *420:57 *1958:CLK 6.135 
16 *420:14 *2103:A 1.6 
17 *420:12 *420:97 1.83 
18 *420:97 *1982:CLK 12.02 
19 *420:97 *1936:CLK 1.6 
20 *420:8 *420:121 6.665 
21 *420:121 *1968:CLK 15.455 
22 *420:121 *1985:CLK 1.6 
23 *420:6 *2058:CLK 1.6 
*END

*D_NET *421 0.0100841
*CONN
*I *1933:CLK I *D sky130_fd_sc_hd__dfxtp_1
*I *2055:CLK I *D sky130_fd_sc_hd__dfxtp_1
*I *1952:CLK I *D sky130_fd_sc_hd__dfxtp_1
*I *1945:CLK I *D sky130_fd_sc_hd__dfxtp_1
*I *2090:A I *D sky130_fd_sc_hd__clkinv_2
*I *1957:CLK I *D sky130_fd_sc_hd__dfxtp_1
*I *1965:CLK I *D sky130_fd_sc_hd__dfxtp_1
*I *1984:CLK I *D sky130_fd_sc_hd__dfxtp_1
*I *1960:CLK I *D sky130_fd_sc_hd__dfxtp_1
*I *1900:CLK I *D sky130_fd_sc_hd__dfxtp_1
*I *1944:CLK I *D sky130_fd_sc_hd__dfxtp_1
*I *2074:X O *D sky130_fd_sc_hd__clkbuf_8
*CAP
1 *1933:CLK 6.39583e-05
2 *2055:CLK 6.79142e-05
3 *1952:CLK 0
4 *1945:CLK 0.000339053
5 *2090:A 0.000202254
6 *1957:CLK 0.000221048
7 *1965:CLK 2.08101e-05
8 *1984:CLK 0
9 *1960:CLK 0.00033688
10 *1900:CLK 0
11 *1944:CLK 0.000269623
12 *2074:X 0
13 *421:82 0.000703803
14 *421:78 0.000283395
15 *421:33 0.00052923
16 *421:22 0.00053594
17 *421:18 0.000409069
18 *421:14 0.000470594
19 *421:10 0.000777359
20 *421:4 0.000558572
21 *1944:CLK *457:12 0
22 *1944:CLK *457:18 0
23 *1945:CLK *1784:A1 0.000123225
24 *1645:A1 *421:10 0
25 *1645:A2 *2090:A 3.09088e-05
26 *1648:B1 *421:10 8.15598e-05
27 *1648:B1 *421:78 0.000157714
28 *1652:A2 *421:10 0
29 *1652:B1 *1945:CLK 0.000207311
30 *1652:B1 *421:10 0
31 *1656:A1 *421:82 4.41832e-05
32 *1656:A2 *1945:CLK 0
33 *1660:A2 *421:78 0.000116158
34 *1660:B1 *421:10 0.000376614
35 *1660:B2 *421:10 7.23602e-05
36 *1783:S *421:78 2.11674e-05
37 *1784:A0 *1945:CLK 4.43871e-06
38 *1789:A1 *1957:CLK 0
39 *1792:A1 *1944:CLK 9.766e-05
40 *1792:A1 *421:33 0.000130072
41 *1798:A0 *1957:CLK 0
42 *1798:A0 *421:10 0
43 *1801:A0 *421:33 7.23602e-05
44 *1820:A0 *1957:CLK 0
45 *1883:S *1944:CLK 8.53113e-06
46 *1952:D *1945:CLK 1.52184e-05
47 *1952:D *2090:A 0.000111184
48 *1952:D *421:10 7.89611e-05
49 *1952:D *421:82 4.21973e-05
50 *1957:D *1957:CLK 4.91189e-05
51 *1960:D *1944:CLK 0
52 *1960:D *1960:CLK 0.000166946
53 *1960:D *421:33 0
54 *1965:D *421:10 5.42473e-05
55 *1965:D *421:14 0.000128642
56 *1984:D *421:18 0.000353334
57 *164:34 *421:10 9.14049e-05
58 *266:53 *421:10 0
59 *266:65 *1944:CLK 0.000362285
60 *267:87 *421:14 3.46272e-05
61 *267:87 *421:18 9.66882e-05
62 *267:87 *421:22 8.93264e-05
63 *301:10 *1960:CLK 6.74079e-05
64 *301:10 *421:33 7.26551e-05
65 *309:14 *2090:A 0.000212557
66 *397:10 *1957:CLK 0
67 *397:10 *421:18 4.82919e-05
68 *407:61 *1933:CLK 6.00111e-05
69 *407:61 *421:10 6.58339e-05
70 *408:484 *2090:A 0.000350486
71 *410:88 *2055:CLK 0.000150653
72 *410:88 *421:82 4.82919e-05
*RES
1 *2074:X *421:4 1.6 
2 *421:4 *421:10 11.915 
3 *421:10 *421:14 4.175 
4 *421:14 *421:18 6.33 
5 *421:18 *421:22 3.485 
6 *421:22 *1944:CLK 9.825 
7 *421:22 *421:33 4.185 
8 *421:33 *1900:CLK 3.6 
9 *421:33 *1960:CLK 9.735 
10 *421:18 *1984:CLK 1.6 
11 *421:14 *1965:CLK 1.96 
12 *421:10 *1957:CLK 7.275 
13 *421:4 *421:78 5.89 
14 *421:78 *421:82 2.88 
15 *421:82 *2090:A 7.57 
16 *421:82 *1945:CLK 12.71 
17 *421:82 *1952:CLK 1.6 
18 *421:78 *2055:CLK 3.085 
19 *421:4 *1933:CLK 2.74 
*END

*D_NET *422 0.00785913
*CONN
*I *1938:CLK I *D sky130_fd_sc_hd__dfxtp_1
*I *1946:CLK I *D sky130_fd_sc_hd__dfxtp_1
*I *1930:CLK I *D sky130_fd_sc_hd__dfxtp_1
*I *1978:CLK I *D sky130_fd_sc_hd__dfxtp_1
*I *2091:A I *D sky130_fd_sc_hd__clkinv_4
*I *1954:CLK I *D sky130_fd_sc_hd__dfxtp_1
*I *1951:CLK I *D sky130_fd_sc_hd__dfxtp_1
*I *1962:CLK I *D sky130_fd_sc_hd__dfxtp_1
*I *2075:X O *D sky130_fd_sc_hd__clkbuf_8
*CAP
1 *1938:CLK 0.000214191
2 *1946:CLK 0
3 *1930:CLK 0
4 *1978:CLK 0
5 *2091:A 0.00028779
6 *1954:CLK 4.51794e-05
7 *1951:CLK 0.000214657
8 *1962:CLK 0.000101357
9 *2075:X 4.26896e-05
10 *422:43 0.000347176
11 *422:26 0.000673505
12 *422:20 0.000793408
13 *422:18 0.000175861
14 *422:12 0.000449126
15 *422:10 0.000294075
16 *422:8 0.000256881
17 *1938:CLK *451:177 0.000113987
18 *1951:CLK *1782:A1 4.66108e-05
19 *2091:A *1795:A1 0.000105654
20 *422:18 *451:143 0
21 *422:18 *451:158 0
22 *422:26 *1795:A1 0.000174577
23 *1747:B1 *422:26 0
24 *1747:B1 *422:43 0
25 *1782:A0 *1951:CLK 8.10355e-05
26 *1782:A0 *1954:CLK 0
27 *1814:A0 *422:18 0
28 *1917:CLK *422:26 5.72633e-05
29 *1930:D *422:12 0.000126073
30 *1938:D *1938:CLK 0.000110295
31 *1951:D *1951:CLK 9.78003e-05
32 *1962:D *1962:CLK 4.82919e-05
33 *1962:D *422:26 0.000227886
34 *1978:D *2091:A 1.43717e-05
35 *1978:D *422:18 4.40725e-05
36 *2076:A *422:12 0.000307043
37 *163:36 *422:26 0.00027299
38 *231:24 *1938:CLK 8.23457e-05
39 *263:32 *1962:CLK 1.7824e-05
40 *263:32 *422:26 7.23602e-05
41 *263:95 *422:18 0.000339191
42 *264:16 *422:12 0.000146744
43 *265:26 *1951:CLK 7.35813e-05
44 *265:26 *1954:CLK 1.81793e-05
45 *265:34 *1962:CLK 1.88904e-05
46 *265:34 *422:26 5.34443e-05
47 *265:34 *422:43 4.26331e-05
48 *266:19 *1938:CLK 0.000352073
49 *266:19 *422:8 0.00013687
50 *311:12 *1938:CLK 6.19818e-05
51 *391:10 *2091:A 0.000225718
52 *409:52 *1938:CLK 0.000356576
53 *409:52 *422:8 0.00013687
*RES
1 *2075:X *422:8 5.235 
2 *422:8 *422:10 2 
3 *422:10 *422:12 6.315 
4 *422:12 *422:18 7.93 
5 *422:18 *422:20 0.36 
6 *422:20 *422:26 12.9725 
7 *422:26 *1962:CLK 5.0775 
8 *422:26 *422:43 3.5075 
9 *422:43 *1951:CLK 5.86 
10 *422:43 *1954:CLK 2.41 
11 *422:20 *2091:A 7.57 
12 *422:18 *1978:CLK 1.6 
13 *422:12 *1930:CLK 1.6 
14 *422:10 *1946:CLK 1.6 
15 *422:8 *1938:CLK 10.65 
*END

*D_NET *423 0.00941802
*CONN
*I *1928:CLK I *D sky130_fd_sc_hd__dfrtp_1
*I *1923:CLK I *D sky130_fd_sc_hd__dfrtp_1
*I *1924:CLK I *D sky130_fd_sc_hd__dfrtp_1
*I *1999:CLK I *D sky130_fd_sc_hd__dfrtp_1
*I *2092:A I *D sky130_fd_sc_hd__bufinv_16
*I *1998:CLK I *D sky130_fd_sc_hd__dfrtp_2
*I *1929:CLK I *D sky130_fd_sc_hd__dfrtp_1
*I *2001:CLK I *D sky130_fd_sc_hd__dfrtp_1
*I *1997:CLK I *D sky130_fd_sc_hd__dfrtp_1
*I *2002:CLK I *D sky130_fd_sc_hd__dfrtp_1
*I *2076:X O *D sky130_fd_sc_hd__clkbuf_8
*CAP
1 *1928:CLK 0
2 *1923:CLK 4.71618e-05
3 *1924:CLK 0.000226254
4 *1999:CLK 0
5 *2092:A 0
6 *1998:CLK 0
7 *1929:CLK 0.000286201
8 *2001:CLK 8.23853e-05
9 *1997:CLK 0.000107042
10 *2002:CLK 0.000161259
11 *2076:X 0
12 *423:95 0.000384105
13 *423:93 0.000360161
14 *423:78 0.00086058
15 *423:33 0.000287057
16 *423:29 0.000531622
17 *423:14 0.000395122
18 *423:12 0.000204281
19 *423:10 0.000354519
20 *423:4 0.000847417
21 *1923:CLK *1908:RESET_B 0.00015639
22 *1924:CLK *1924:D 1.56428e-05
23 *1924:CLK *1926:D 0
24 *1924:CLK *1927:D 0.000328406
25 *1924:CLK *1929:D 4.41506e-05
26 *1929:CLK *1999:D 0.000196376
27 *1929:CLK *1999:RESET_B 1.83847e-05
28 *1997:CLK *1908:D 0
29 *1997:CLK *1997:D 1.94636e-05
30 *2001:CLK *2002:RESET_B 0.000137819
31 *2001:CLK *447:18 0.000184866
32 *2002:CLK *2002:D 0.000180675
33 *423:10 *1998:D 7.75325e-05
34 *423:12 *1998:D 0.000141929
35 *423:12 *1998:RESET_B 0
36 *423:14 *1998:RESET_B 0
37 *423:14 *2002:D 9.14049e-05
38 *423:29 *1700:B 1.12578e-05
39 *423:29 *1999:D 0.000199833
40 *423:33 *1908:D 0
41 *423:33 *1910:D 4.91927e-05
42 *423:78 *1676:A 7.00889e-06
43 *423:78 *1907:D 9.91257e-05
44 *423:78 *1999:D 0.000297138
45 *423:93 *1676:A 2.75145e-05
46 *423:93 *1926:D 0
47 *423:93 *1927:D 0.000208477
48 *423:95 *1926:D 0
49 *423:95 *1927:D 0.000206123
50 *1700:A *1997:CLK 0.000116158
51 *1700:A *423:33 0.0001752
52 *1705:A *423:29 0.000198939
53 *1705:B *423:29 0.000200615
54 *1706:A1 *1997:CLK 4.82863e-05
55 *1710:A *2002:CLK 1.34361e-05
56 *1712:A *1929:CLK 0.000160641
57 *1712:A *423:29 0.000122331
58 *1712:A *423:33 3.09164e-05
59 *1712:B *1929:CLK 9.80943e-06
60 *1712:B *423:29 2.54431e-05
61 *1715:B *2002:CLK 0
62 *1715:B *423:14 0
63 *1908:CLK *1923:CLK 8.63479e-05
64 *165:29 *1997:CLK 2.11084e-05
65 *231:12 *423:10 9.9535e-05
66 *231:12 *423:12 0.000200937
67 *231:12 *423:14 7.44375e-05
68 *232:10 *2002:CLK 0
*RES
1 *2076:X *423:4 1.6 
2 *423:4 *423:10 6.665 
3 *423:10 *423:12 4.185 
4 *423:12 *423:14 1.89 
5 *423:14 *2002:CLK 6.45 
6 *423:14 *423:29 6.59 
7 *423:29 *423:33 4.655 
8 *423:33 *1997:CLK 5.94 
9 *423:33 *2001:CLK 6.465 
10 *423:29 *1929:CLK 6.895 
11 *423:12 *1998:CLK 3.6 
12 *423:10 *2092:A 3.6 
13 *423:4 *423:78 11.49 
14 *423:78 *1999:CLK 1.6 
15 *423:78 *423:93 6.695 
16 *423:93 *423:95 2.4 
17 *423:95 *1924:CLK 8.325 
18 *423:95 *1923:CLK 5.085 
19 *423:93 *1928:CLK 3.6 
*END

*D_NET *424 0.00810709
*CONN
*I *1941:CLK I *D sky130_fd_sc_hd__dfxtp_1
*I *1897:CLK I *D sky130_fd_sc_hd__dfxtp_1
*I *1963:CLK I *D sky130_fd_sc_hd__dfxtp_1
*I *1981:CLK I *D sky130_fd_sc_hd__dfxtp_1
*I *1931:CLK I *D sky130_fd_sc_hd__dfxtp_1
*I *1942:CLK I *D sky130_fd_sc_hd__dfxtp_1
*I *2052:CLK I *D sky130_fd_sc_hd__dfxtp_1
*I *1950:CLK I *D sky130_fd_sc_hd__dfxtp_1
*I *2093:A I *D sky130_fd_sc_hd__clkinvlp_4
*I *2077:X O *D sky130_fd_sc_hd__clkbuf_8
*CAP
1 *1941:CLK 0
2 *1897:CLK 0.000492804
3 *1963:CLK 0.00031772
4 *1981:CLK 0
5 *1931:CLK 0
6 *1942:CLK 0
7 *2052:CLK 6.16811e-05
8 *1950:CLK 0
9 *2093:A 0
10 *2077:X 7.05891e-05
11 *424:73 0.00031772
12 *424:71 0.000816903
13 *424:65 0.000638978
14 *424:50 0.000372775
15 *424:29 0.000158927
16 *424:25 0.00016176
17 *424:14 0.000182824
18 *424:8 0.000246795
19 *1897:CLK *454:10 0
20 *1897:CLK *454:12 0
21 *1897:CLK *454:14 0
22 *1963:CLK *1817:A1 0.000139979
23 *424:71 *454:16 0
24 *1636:A1 *424:14 0.000122331
25 *1636:A1 *424:25 3.57349e-05
26 *1740:A2 *1897:CLK 0
27 *1740:A3 *1897:CLK 0
28 *1740:S1 *1897:CLK 0.000183036
29 *1740:S1 *1963:CLK 9.27255e-06
30 *1740:S1 *424:71 7.23602e-05
31 *1741:B *424:71 0
32 *1742:A3 *424:65 5.56168e-05
33 *1747:B1 *424:25 0.000152814
34 *1747:B1 *424:29 0.000357541
35 *1771:A1 *424:50 7.1009e-05
36 *1771:A1 *424:65 0.000106538
37 *1774:S *424:65 4.70995e-05
38 *1817:A0 *1963:CLK 8.40269e-05
39 *1820:S *1897:CLK 0
40 *1916:D *424:65 0
41 *1916:D *424:71 0
42 *1917:CLK *424:14 0.000232258
43 *1917:CLK *424:50 0.000156251
44 *1917:CLK *424:65 0.000553269
45 *1918:D *424:65 0.000445457
46 *1918:D *424:71 6.43122e-05
47 *1919:D *424:65 0.000216108
48 *1919:D *424:71 3.72916e-05
49 *1941:D *424:65 1.43717e-05
50 *1981:D *1963:CLK 9.35611e-05
51 *29:12 *424:25 0.000162318
52 *29:12 *424:29 0.000355882
53 *164:18 *424:8 0.000158072
54 *264:68 *424:14 9.78647e-05
55 *264:68 *424:50 2.88436e-05
56 *270:105 *1963:CLK 0.000165104
57 *408:384 *2052:CLK 4.92935e-05
58 *409:160 *424:71 0
59 *409:255 *424:71 0
*RES
1 *2077:X *424:8 5.085 
2 *424:8 *424:14 5.795 
3 *424:14 *2093:A 1.6 
4 *424:14 *424:25 4.34 
5 *424:25 *424:29 6.185 
6 *424:29 *1950:CLK 1.6 
7 *424:29 *2052:CLK 2.74 
8 *424:25 *1942:CLK 3.6 
9 *424:8 *424:50 1.89 
10 *424:50 *1931:CLK 3.6 
11 *424:50 *424:65 12.74 
12 *424:65 *424:71 6.98 
13 *424:71 *424:73 2 
14 *424:73 *1981:CLK 1.6 
15 *424:73 *1963:CLK 7.6 
16 *424:71 *1897:CLK 11.4 
17 *424:65 *1941:CLK 1.6 
*END

*D_NET *425 0.00885924
*CONN
*I *1895:CLK I *D sky130_fd_sc_hd__dfxtp_1
*I *1955:CLK I *D sky130_fd_sc_hd__dfxtp_1
*I *1979:CLK I *D sky130_fd_sc_hd__dfxtp_1
*I *2094:A I *D sky130_fd_sc_hd__clkinv_4
*I *1947:CLK I *D sky130_fd_sc_hd__dfxtp_1
*I *1939:CLK I *D sky130_fd_sc_hd__dfxtp_1
*I *2053:CLK I *D sky130_fd_sc_hd__dfxtp_1
*I *1949:CLK I *D sky130_fd_sc_hd__dfxtp_1
*I *2078:X O *D sky130_fd_sc_hd__clkbuf_8
*CAP
1 *1895:CLK 0.000796203
2 *1955:CLK 7.70167e-05
3 *1979:CLK 0
4 *2094:A 4.39167e-05
5 *1947:CLK 0.00048776
6 *1939:CLK 6.06673e-05
7 *2053:CLK 0
8 *1949:CLK 0.000258842
9 *2078:X 3.2595e-05
10 *425:84 0.0010247
11 *425:75 0.000419819
12 *425:44 0.000595081
13 *425:40 0.000160547
14 *425:16 0.000338506
15 *425:12 0.00026086
16 *425:8 0.000412157
17 *1949:CLK *1796:A1 0
18 *425:75 *1796:A1 0
19 *1622:A *1949:CLK 7.21296e-06
20 *1724:A0 *2094:A 0.000195068
21 *1724:A0 *425:12 8.53113e-06
22 *1724:A0 *425:40 0.00015639
23 *1724:A2 *1947:CLK 1.85731e-05
24 *1724:S1 *1947:CLK 4.80285e-05
25 *1725:B *1947:CLK 2.49909e-05
26 *1726:A2 *1895:CLK 0
27 *1726:S0 *1939:CLK 4.21314e-05
28 *1726:S0 *2094:A 0.000156758
29 *1726:S0 *425:44 0.000113373
30 *1731:B2 *425:8 0.000161529
31 *1740:S1 *1955:CLK 4.25365e-05
32 *1742:S1 *1949:CLK 0.000104575
33 *1742:S1 *2094:A 1.33285e-05
34 *1742:S1 *425:16 3.65671e-05
35 *1742:S1 *425:40 8.6852e-05
36 *1743:A2 *1949:CLK 4.82919e-05
37 *1747:B2 *1949:CLK 2.80443e-05
38 *1762:S *1949:CLK 0.000347922
39 *1762:S *425:12 0
40 *1762:S *425:75 0
41 *1780:A0 *1949:CLK 5.83121e-06
42 *1796:A0 *425:84 0
43 *1918:CLK *1895:CLK 8.65961e-05
44 *1918:D *1895:CLK 1.43717e-05
45 *1955:D *1955:CLK 0.000243554
46 *2053:D *425:16 0.00012672
47 *2078:A *425:12 5.57814e-05
48 *163:16 *1949:CLK 0.000146654
49 *163:108 *1949:CLK 4.60584e-05
50 *163:108 *425:16 0.000272978
51 *163:108 *425:40 1.46744e-05
52 *164:18 *1949:CLK 7.36484e-05
53 *266:19 *425:44 1.08723e-05
54 *270:91 *1939:CLK 0.000226848
55 *270:91 *425:12 0
56 *270:91 *425:44 0.000126392
57 *270:91 *425:75 0
58 *270:91 *425:84 0
59 *270:105 *1955:CLK 0.000332115
60 *407:18 *1939:CLK 0.00018471
61 *407:51 *1947:CLK 4.66108e-05
62 *409:133 *425:8 9.4087e-05
63 *409:148 *425:75 0
64 *410:43 *1949:CLK 1.81431e-05
65 *410:49 *1949:CLK 0.000123225
*RES
1 *2078:X *425:8 5.085 
2 *425:8 *425:12 3.89 
3 *425:12 *425:16 2.88 
4 *425:16 *1949:CLK 13.13 
5 *425:16 *2053:CLK 1.6 
6 *425:12 *425:40 2.19 
7 *425:40 *425:44 3.635 
8 *425:44 *1939:CLK 6.255 
9 *425:44 *1947:CLK 9.6 
10 *425:40 *2094:A 3.43 
11 *425:8 *425:75 4.185 
12 *425:75 *1979:CLK 3.6 
13 *425:75 *425:84 2.4 
14 *425:84 *1955:CLK 7.275 
15 *425:84 *1895:CLK 15.84 
*END

*D_NET *426 0.0108564
*CONN
*I *1975:CLK I *D sky130_fd_sc_hd__dfxtp_1
*I *2008:CLK I *D sky130_fd_sc_hd__dfxtp_1
*I *2040:CLK I *D sky130_fd_sc_hd__dfxtp_1
*I *2016:CLK I *D sky130_fd_sc_hd__dfxtp_1
*I *1990:CLK I *D sky130_fd_sc_hd__dfxtp_1
*I *2024:CLK I *D sky130_fd_sc_hd__dfxtp_1
*I *2065:CLK I *D sky130_fd_sc_hd__dfxtp_1
*I *2023:CLK I *D sky130_fd_sc_hd__dfxtp_1
*I *2048:CLK I *D sky130_fd_sc_hd__dfxtp_1
*I *2089:A I *D sky130_fd_sc_hd__clkinv_2
*I *2007:CLK I *D sky130_fd_sc_hd__dfxtp_1
*I *2079:X O *D sky130_fd_sc_hd__clkbuf_8
*CAP
1 *1975:CLK 0
2 *2008:CLK 0.000272559
3 *2040:CLK 0.000600393
4 *2016:CLK 0.000233794
5 *1990:CLK 0
6 *2024:CLK 0.00020044
7 *2065:CLK 0.000530494
8 *2023:CLK 0.000430885
9 *2048:CLK 0
10 *2089:A 2.08101e-05
11 *2007:CLK 0.00011066
12 *2079:X 0
13 *426:98 0.00098226
14 *426:83 0.000468038
15 *426:79 0.000440879
16 *426:63 0.00020044
17 *426:43 0.000982189
18 *426:36 0.000147808
19 *426:32 0.000500041
20 *426:28 0.000760129
21 *426:6 0.000245094
22 *426:4 0.000184768
23 *426:32 *455:31 0.000139933
24 *426:32 *455:42 0.000209179
25 *426:32 *455:55 0.000160665
26 *426:98 *456:41 0
27 *426:98 *456:52 0
28 *1633:A2 *2024:CLK 0.000115484
29 *1633:S0 *426:83 4.49498e-05
30 *1634:S1 *426:83 0
31 *1635:A0 *426:32 0
32 *1635:A1 *426:98 9.54399e-05
33 *1736:S0 *426:32 1.44177e-05
34 *1809:S *2008:CLK 5.6361e-05
35 *1809:S *2040:CLK 0.000260008
36 *1826:S *2007:CLK 9.24127e-05
37 *1847:A0 *2008:CLK 9.02174e-05
38 *1864:A0 *426:32 7.63204e-05
39 *1890:A0 *426:36 1.73877e-05
40 *1975:D *426:83 8.26696e-05
41 *1975:D *426:98 3.68769e-05
42 *1990:D *2024:CLK 0.000358467
43 *2016:D *2016:CLK 0.000166946
44 *2016:D *426:83 1.0183e-05
45 *2016:D *426:98 7.96827e-05
46 *2023:D *2023:CLK 0.000126073
47 *2040:D *2040:CLK 5.2325e-05
48 *2048:D *2065:CLK 0.000128642
49 *2048:D *426:36 0
50 *2079:A *2007:CLK 7.22354e-05
51 *2079:A *426:6 0.000158681
52 *2079:A *426:28 5.74791e-05
53 *2079:A *426:79 0.000107424
54 *274:53 *426:98 0.00011686
55 *275:57 *2024:CLK 0.000152575
56 *283:10 *2024:CLK 1.83847e-05
57 *355:10 *426:32 0.000171172
58 *355:10 *426:36 0.000140905
59 *407:463 *2016:CLK 3.54025e-05
60 *407:467 *2016:CLK 2.95031e-05
61 *416:45 *2007:CLK 6.9451e-05
*RES
1 *2079:X *426:4 1.6 
2 *426:4 *426:6 2.52 
3 *426:6 *2007:CLK 8.63 
4 *426:6 *2089:A 1.96 
5 *426:4 *426:28 1.14 
6 *426:28 *426:32 10.265 
7 *426:32 *426:36 4.145 
8 *426:36 *2048:CLK 1.6 
9 *426:36 *426:43 0.36 
10 *426:43 *2023:CLK 7.585 
11 *426:43 *2065:CLK 9.31 
12 *426:32 *426:63 2 
13 *426:63 *2024:CLK 7.585 
14 *426:63 *1990:CLK 1.6 
15 *426:28 *426:79 4.935 
16 *426:79 *426:83 4.4 
17 *426:83 *2016:CLK 7.515 
18 *426:83 *426:98 5.42 
19 *426:98 *2040:CLK 10.375 
20 *426:98 *2008:CLK 5.86 
21 *426:79 *1975:CLK 1.6 
*END

*D_NET *427 0.00953629
*CONN
*I *2067:CLK I *D sky130_fd_sc_hd__dfxtp_1
*I *2042:CLK I *D sky130_fd_sc_hd__dfxtp_1
*I *1976:CLK I *D sky130_fd_sc_hd__dfxtp_1
*I *1977:CLK I *D sky130_fd_sc_hd__dfxtp_1
*I *2026:CLK I *D sky130_fd_sc_hd__dfxtp_1
*I *2043:CLK I *D sky130_fd_sc_hd__dfxtp_1
*I *2010:CLK I *D sky130_fd_sc_hd__dfxtp_1
*I *2018:CLK I *D sky130_fd_sc_hd__dfxtp_1
*I *2017:CLK I *D sky130_fd_sc_hd__dfxtp_1
*I *2025:CLK I *D sky130_fd_sc_hd__dfxtp_1
*I *2009:CLK I *D sky130_fd_sc_hd__dfxtp_1
*I *2096:A I *D sky130_fd_sc_hd__clkbuf_8
*I *2080:X O *D sky130_fd_sc_hd__clkbuf_8
*CAP
1 *2067:CLK 1.96339e-05
2 *2042:CLK 2.09808e-05
3 *1976:CLK 0
4 *1977:CLK 8.34255e-05
5 *2026:CLK 4.45078e-05
6 *2043:CLK 0
7 *2010:CLK 2.09808e-05
8 *2018:CLK 0
9 *2017:CLK 5.68383e-05
10 *2025:CLK 6.61141e-05
11 *2009:CLK 8.82833e-05
12 *2096:A 4.05585e-05
13 *2080:X 2.41569e-05
14 *427:94 0.000234375
15 *427:79 0.000869931
16 *427:70 0.000767364
17 *427:66 0.000659859
18 *427:53 0.000693641
19 *427:47 0.000753221
20 *427:43 0.00108798
21 *427:23 0.000154397
22 *427:21 0.000563846
23 *427:10 0.000228895
24 *427:6 0.000150713
25 *2096:A *1866:A1 0.000120655
26 *427:10 *453:90 0
27 *427:21 *453:90 0
28 *427:43 *453:90 0
29 *427:94 *436:100 1.16578e-05
30 *427:94 *436:104 0.00010877
31 *1658:A2 *427:79 0.000576345
32 *1807:S *427:79 0.000199833
33 *1839:S *427:10 2.15594e-05
34 *1839:S *427:21 6.34101e-06
35 *1839:S *427:94 0.000137578
36 *1840:A1 *427:79 1.66134e-05
37 *1848:S *427:66 0
38 *1866:A0 *2096:A 8.40269e-05
39 *1866:A0 *427:21 0.000139933
40 *1866:A0 *427:43 0.000198286
41 *1866:S *427:10 0.000163019
42 *1866:S *427:94 3.57924e-05
43 *1867:A0 *427:94 7.23533e-05
44 *1976:D *427:47 0.000164382
45 *2010:D *427:79 1.43717e-05
46 *2017:D *427:53 0.000187759
47 *2017:D *427:66 9.50342e-06
48 *2018:D *427:66 5.72091e-05
49 *2018:D *427:70 6.4422e-05
50 *2018:D *427:79 1.43717e-05
51 *2042:D *427:43 1.43717e-05
52 *2080:A *2067:CLK 3.83041e-05
53 *2080:A *427:6 4.82919e-05
54 *269:103 *2009:CLK 8.43255e-05
55 *269:103 *2025:CLK 9.4087e-05
56 *274:61 *427:66 0
57 *365:8 *427:43 4.66108e-05
58 *374:10 *427:79 9.34632e-05
59 *407:311 *2026:CLK 8.23457e-05
*RES
1 *2080:X *427:6 2.05 
2 *427:6 *427:10 4.4 
3 *427:10 *2096:A 4.74 
4 *427:10 *427:21 1.89 
5 *427:21 *427:23 2 
6 *427:23 *2009:CLK 3.085 
7 *427:23 *2025:CLK 3.085 
8 *427:21 *427:43 9.335 
9 *427:43 *427:47 8.31 
10 *427:47 *427:53 5.285 
11 *427:53 *2017:CLK 4.5 
12 *427:53 *427:66 8.265 
13 *427:66 *427:70 3.89 
14 *427:70 *2018:CLK 1.6 
15 *427:70 *427:79 12.54 
16 *427:79 *2010:CLK 1.96 
17 *427:79 *427:94 7.81 
18 *427:94 *2043:CLK 1.6 
19 *427:94 *2026:CLK 2.395 
20 *427:66 *1977:CLK 4.74 
21 *427:47 *1976:CLK 1.6 
22 *427:43 *2042:CLK 1.96 
23 *427:6 *2067:CLK 2.05 
*END

*D_NET *428 0.00516667
*CONN
*I *2050:CLK I *D sky130_fd_sc_hd__dfxtp_1
*I *2022:CLK I *D sky130_fd_sc_hd__dfxtp_1
*I *2063:CLK I *D sky130_fd_sc_hd__dfxtp_1
*I *1992:CLK I *D sky130_fd_sc_hd__dfxtp_1
*I *2097:A I *D sky130_fd_sc_hd__bufinv_16
*I *2051:CLK I *D sky130_fd_sc_hd__dfxtp_1
*I *2006:CLK I *D sky130_fd_sc_hd__dfxtp_1
*I *1973:CLK I *D sky130_fd_sc_hd__dfxtp_1
*I *1993:CLK I *D sky130_fd_sc_hd__dfxtp_1
*I *2014:CLK I *D sky130_fd_sc_hd__dfxtp_1
*I *2081:X O *D sky130_fd_sc_hd__clkbuf_8
*CAP
1 *2050:CLK 0.00014098
2 *2022:CLK 0.000135636
3 *2063:CLK 7.73474e-05
4 *1992:CLK 0
5 *2097:A 2.1118e-05
6 *2051:CLK 6.21932e-05
7 *2006:CLK 0.000293048
8 *1973:CLK 8.40932e-05
9 *1993:CLK 2.23868e-05
10 *2014:CLK 0.000197855
11 *2081:X 0
12 *428:82 0.000373472
13 *428:68 7.73474e-05
14 *428:66 0.000238862
15 *428:50 8.33112e-05
16 *428:23 0.00022287
17 *428:19 0.000463884
18 *428:17 0.000151969
19 *428:15 0.000239528
20 *428:4 0.000197855
21 *1651:A0 *2022:CLK 3.45679e-05
22 *1651:A0 *2050:CLK 6.36578e-05
23 *1651:A1 *2050:CLK 4.80182e-05
24 *1652:B1 *2050:CLK 4.78807e-05
25 *1659:A0 *2006:CLK 0.000198945
26 *1659:A1 *2006:CLK 1.33293e-05
27 *1992:D *428:66 0.000137571
28 *197:16 *2050:CLK 2.75538e-05
29 *197:16 *428:17 9.19758e-05
30 *197:16 *428:19 5.51245e-05
31 *197:16 *428:23 2.96466e-05
32 *197:16 *428:66 0.000128899
33 *197:16 *428:82 5.93844e-05
34 *253:12 *2050:CLK 0
35 *253:12 *428:66 0
36 *253:12 *428:82 0
37 *272:99 *428:17 9.19502e-05
38 *272:99 *428:19 5.30144e-05
39 *272:99 *428:23 8.683e-05
40 *272:99 *428:66 5.30144e-05
41 *275:121 *2063:CLK 0.000349598
42 *276:61 *1973:CLK 8.09157e-05
43 *276:61 *1993:CLK 2.11084e-05
44 *277:30 *2063:CLK 0.000139487
45 *407:293 *2051:CLK 4.80182e-05
46 *407:293 *2097:A 1.83847e-05
47 *408:247 *2022:CLK 0.000204034
48 *409:180 *428:23 0
*RES
1 *2081:X *428:4 1.6 
2 *428:4 *2014:CLK 4.48 
3 *428:4 *428:15 2 
4 *428:15 *428:17 2.655 
5 *428:17 *428:19 1.635 
6 *428:19 *428:23 4.4 
7 *428:23 *1993:CLK 2.05 
8 *428:23 *1973:CLK 3.43 
9 *428:19 *2006:CLK 8.205 
10 *428:17 *428:50 2 
11 *428:50 *2051:CLK 2.74 
12 *428:50 *2097:A 2.05 
13 *428:15 *428:66 3.93 
14 *428:66 *428:68 2 
15 *428:68 *1992:CLK 1.6 
16 *428:68 *2063:CLK 4.81 
17 *428:66 *428:82 1.89 
18 *428:82 *2022:CLK 6.81 
19 *428:82 *2050:CLK 6.885 
*END

*D_NET *429 0.00981876
*CONN
*I *2004:CLK I *D sky130_fd_sc_hd__dfxtp_1
*I *2012:CLK I *D sky130_fd_sc_hd__dfxtp_1
*I *2039:CLK I *D sky130_fd_sc_hd__dfxtp_1
*I *2003:CLK I *D sky130_fd_sc_hd__dfxtp_1
*I *2098:A I *D sky130_fd_sc_hd__bufinv_16
*I *2011:CLK I *D sky130_fd_sc_hd__dfxtp_1
*I *1991:CLK I *D sky130_fd_sc_hd__dfxtp_1
*I *2049:CLK I *D sky130_fd_sc_hd__dfxtp_1
*I *2041:CLK I *D sky130_fd_sc_hd__dfxtp_1
*I *1970:CLK I *D sky130_fd_sc_hd__dfxtp_1
*I *2082:X O *D sky130_fd_sc_hd__clkbuf_8
*CAP
1 *2004:CLK 0.000183363
2 *2012:CLK 0
3 *2039:CLK 4.26491e-05
4 *2003:CLK 0.000196883
5 *2098:A 8.54954e-05
6 *2011:CLK 0.000149655
7 *1991:CLK 0.00019415
8 *2049:CLK 0
9 *2041:CLK 0.000129178
10 *1970:CLK 0.000193289
11 *2082:X 0.000338746
12 *429:101 0.000101518
13 *429:99 0.000518859
14 *429:84 0.000536525
15 *429:73 0.000229348
16 *429:46 0.000609596
17 *429:31 0.00098669
18 *429:25 0.000591721
19 *429:12 0.000233488
20 *429:10 0.000459783
21 *429:46 *456:22 8.08153e-06
22 *429:46 *456:35 0.000197136
23 *1641:A3 *1991:CLK 6.83629e-05
24 *1641:S1 *429:46 0
25 *1642:A0 *1970:CLK 5.39961e-05
26 *1642:A0 *429:12 0.000133075
27 *1642:A0 *429:73 4.44927e-05
28 *1642:A1 *429:10 3.64998e-06
29 *1642:A2 *2041:CLK 7.61174e-06
30 *1643:A0 *1970:CLK 8.78813e-05
31 *1643:A0 *429:12 7.70938e-05
32 *1643:A0 *429:73 0.000138977
33 *1643:A0 *429:84 6.55406e-05
34 *1643:A1 *2003:CLK 0.000354725
35 *1643:A1 *429:73 0.000109533
36 *1643:A1 *429:84 7.34364e-05
37 *1643:S *2003:CLK 0.000164874
38 *1644:B1 *2003:CLK 6.69341e-05
39 *1856:A1 *429:46 3.05238e-05
40 *1856:S *1991:CLK 6.28765e-05
41 *1865:A0 *1970:CLK 0.000117825
42 *1891:S *429:46 8.6099e-05
43 *2012:D *2004:CLK 1.90686e-05
44 *2012:D *429:99 0.000329872
45 *2012:D *429:101 3.84341e-05
46 *2024:D *429:46 8.53113e-06
47 *2041:D *2041:CLK 4.82319e-06
48 *2041:D *429:31 4.38278e-05
49 *2049:D *1991:CLK 0.000198196
50 *2082:A *429:10 0.000191243
51 *269:26 *1970:CLK 0.000207896
52 *269:26 *429:46 0
53 *275:44 *1991:CLK 2.59981e-05
54 *275:57 *1991:CLK 6.58674e-05
55 *276:35 *429:99 4.43682e-05
56 *276:39 *2039:CLK 1.56428e-05
57 *276:39 *429:99 9.65676e-05
58 *276:39 *429:101 6.42013e-05
59 *276:61 *2039:CLK 4.06489e-05
60 *276:117 *2004:CLK 0
61 *276:117 *429:84 1.01661e-05
62 *276:117 *429:99 0.000139927
63 *348:10 *429:46 0
64 *356:6 *1991:CLK 4.80182e-05
65 *388:12 *429:46 0
66 *407:449 *429:10 4.72308e-05
67 *407:463 *2041:CLK 2.11084e-05
68 *408:207 *429:46 0.000423461
69 *408:216 *2004:CLK 0
*RES
1 *2082:X *429:10 8.205 
2 *429:10 *429:12 1.635 
3 *429:12 *1970:CLK 8.7 
4 *429:12 *429:25 2 
5 *429:25 *429:31 5.31 
6 *429:31 *2041:CLK 3.355 
7 *429:31 *429:46 13.795 
8 *429:46 *2049:CLK 1.6 
9 *429:46 *1991:CLK 10.355 
10 *429:25 *2011:CLK 3.775 
11 *429:10 *429:73 2.91 
12 *429:73 *2098:A 4.74 
13 *429:73 *429:84 1.89 
14 *429:84 *2003:CLK 8.88 
15 *429:84 *429:99 9.395 
16 *429:99 *429:101 1.485 
17 *429:101 *2039:CLK 2.395 
18 *429:101 *2012:CLK 1.6 
19 *429:99 *2004:CLK 8.36 
*END

*D_NET *430 0.00805537
*CONN
*I *2099:A I *D sky130_fd_sc_hd__clkinv_4
*I *2061:CLK I *D sky130_fd_sc_hd__dfxtp_1
*I *2037:CLK I *D sky130_fd_sc_hd__dfxtp_1
*I *2036:CLK I *D sky130_fd_sc_hd__dfxtp_1
*I *2044:CLK I *D sky130_fd_sc_hd__dfxtp_1
*I *1986:CLK I *D sky130_fd_sc_hd__dfxtp_1
*I *2019:CLK I *D sky130_fd_sc_hd__dfxtp_1
*I *2060:CLK I *D sky130_fd_sc_hd__dfxtp_1
*I *2083:X O *D sky130_fd_sc_hd__clkbuf_8
*CAP
1 *2099:A 0.000137337
2 *2061:CLK 0
3 *2037:CLK 9.58567e-05
4 *2036:CLK 0.000181519
5 *2044:CLK 0
6 *1986:CLK 8.84214e-05
7 *2019:CLK 0
8 *2060:CLK 0.000350845
9 *2083:X 0
10 *430:67 0.000593695
11 *430:32 0.000134664
12 *430:16 0.00036974
13 *430:14 0.000611246
14 *430:8 0.000868444
15 *430:6 0.000638654
16 *430:4 0.000137337
17 *2060:CLK *1824:A1 4.41506e-05
18 *430:14 *1824:A1 0.000252283
19 *430:16 *1824:A1 1.91597e-05
20 *1720:A2 *2060:CLK 1.56428e-05
21 *1720:A2 *430:14 0.000233446
22 *1720:A2 *430:16 1.56428e-05
23 *1720:S1 *430:14 0.000226841
24 *1722:A0 *430:14 0
25 *1722:S *430:8 0.000208484
26 *1722:S *430:67 0.000109016
27 *1842:S *430:67 6.12954e-05
28 *1851:A1 *430:14 2.4997e-05
29 *1860:S *2037:CLK 2.49909e-05
30 *2019:D *430:14 1.43717e-05
31 *2020:D *430:67 0.0002014
32 *2036:D *2036:CLK 0.000162461
33 *2036:D *430:8 0
34 *2036:D *430:14 0
35 *2037:D *2037:CLK 3.42142e-05
36 *2044:D *430:14 0
37 *2044:D *430:32 0.000139238
38 *2060:D *2060:CLK 9.03376e-05
39 *2061:D *430:67 0.000195621
40 *274:10 *2037:CLK 8.09021e-06
41 *274:20 *2037:CLK 1.22676e-05
42 *275:34 *430:14 0
43 *276:16 *2037:CLK 5.23362e-05
44 *276:22 *2037:CLK 5.83121e-06
45 *277:92 *430:8 0.000198204
46 *277:92 *430:14 0.000319121
47 *277:92 *430:67 0.000162192
48 *277:102 *1986:CLK 0.000185405
49 *277:102 *430:32 0.000152814
50 *278:94 *2037:CLK 0.000159957
51 *336:10 *430:67 2.49909e-05
52 *344:8 *430:67 2.76356e-05
53 *351:10 *430:14 1.27474e-05
54 *359:10 *430:8 0
55 *407:427 *2037:CLK 1.56428e-05
56 *407:439 *430:67 5.94827e-05
57 *409:98 *430:67 0.000377302
*RES
1 *2083:X *430:4 1.6 
2 *430:4 *430:6 2 
3 *430:6 *430:8 4.185 
4 *430:8 *430:14 15.68 
5 *430:14 *430:16 0.45 
6 *430:16 *2060:CLK 7.225 
7 *430:16 *2019:CLK 1.6 
8 *430:14 *430:32 3.89 
9 *430:32 *1986:CLK 5.745 
10 *430:32 *2044:CLK 3.6 
11 *430:8 *2036:CLK 6.48 
12 *430:6 *430:67 14.045 
13 *430:67 *2037:CLK 7.94 
14 *430:67 *2061:CLK 1.6 
15 *430:4 *2099:A 3.445 
*END

*D_NET *431 0.00854849
*CONN
*I *1995:CLK I *D sky130_fd_sc_hd__dfrtp_4
*I *2045:CLK I *D sky130_fd_sc_hd__dfxtp_1
*I *2020:CLK I *D sky130_fd_sc_hd__dfxtp_1
*I *2100:A I *D sky130_fd_sc_hd__clkinv_4
*I *1894:CLK I *D sky130_fd_sc_hd__dfxtp_1
*I *2047:CLK I *D sky130_fd_sc_hd__dfxtp_1
*I *1989:CLK I *D sky130_fd_sc_hd__dfxtp_1
*I *1971:CLK I *D sky130_fd_sc_hd__dfxtp_1
*I *2084:X O *D sky130_fd_sc_hd__clkbuf_8
*CAP
1 *1995:CLK 0.000251265
2 *2045:CLK 0.000382547
3 *2020:CLK 6.89389e-05
4 *2100:A 2.08101e-05
5 *1894:CLK 0
6 *2047:CLK 3.33983e-05
7 *1989:CLK 0
8 *1971:CLK 1.97372e-05
9 *2084:X 0
10 *431:70 0.00070648
11 *431:34 0.000223507
12 *431:23 0.000421208
13 *431:12 0.000659666
14 *431:8 0.000556805
15 *431:6 0.00028284
16 *431:4 0.000159404
17 *1995:CLK *432:98 0
18 *2045:CLK *1870:A0 0
19 *431:6 *452:46 0.000304257
20 *431:8 *452:46 0.000102542
21 *431:12 *1834:A0 0.000234669
22 *431:12 *452:68 0.000225285
23 *431:23 *1827:A1 0
24 *431:34 *1827:A1 0
25 *431:70 *452:46 0.000222134
26 *1702:B *1995:CLK 0.000116853
27 *1723:B1 *2020:CLK 0.000206123
28 *1730:A1 *2020:CLK 2.49909e-05
29 *1746:A1 *431:23 0
30 *1825:A0 *2045:CLK 7.21296e-06
31 *1825:A0 *431:70 0.000163199
32 *1833:S *431:8 2.05056e-05
33 *1833:S *431:12 2.16917e-05
34 *1834:A1 *431:12 0.000154828
35 *1872:A1 *431:23 0.000183738
36 *1872:A1 *431:34 0.000149071
37 *1971:D *431:12 1.43717e-05
38 *1971:D *431:23 4.43871e-06
39 *2045:D *2045:CLK 0.000107773
40 *2047:D *431:34 0
41 *2085:A *431:6 0.000307049
42 *2085:A *431:70 0.00042453
43 *227:8 *1995:CLK 3.26822e-05
44 *228:8 *1995:CLK 3.09164e-05
45 *269:77 *1971:CLK 5.83121e-06
46 *272:25 *2045:CLK 0.000260071
47 *272:25 *431:70 1.46828e-05
48 *273:40 *1971:CLK 2.16833e-05
49 *273:40 *431:12 0.000886744
50 *275:16 *1995:CLK 0
51 *275:16 *2045:CLK 0
52 *336:10 *2045:CLK 1.27891e-05
53 *338:10 *2047:CLK 5.83121e-06
54 *338:10 *431:34 0.00013687
55 *384:12 *431:12 7.53903e-05
56 *408:134 *2020:CLK 4.82863e-05
57 *411:33 *1995:CLK 0
58 *412:14 *1995:CLK 1.47347e-05
59 *412:18 *1995:CLK 1.56428e-05
60 *416:182 *2020:CLK 2.14129e-05
61 *416:184 *2020:CLK 0.00018305
*RES
1 *2084:X *431:4 1.6 
2 *431:4 *431:6 3.21 
3 *431:6 *431:8 2.175 
4 *431:8 *431:12 11.505 
5 *431:12 *1971:CLK 2.05 
6 *431:12 *431:23 6.185 
7 *431:23 *1989:CLK 3.6 
8 *431:23 *431:34 5.93 
9 *431:34 *2047:CLK 2.05 
10 *431:34 *1894:CLK 1.6 
11 *431:8 *2100:A 1.96 
12 *431:6 *2020:CLK 8.45 
13 *431:4 *431:70 5.9 
14 *431:70 *2045:CLK 11.325 
15 *431:70 *1995:CLK 8.07 
*END

*D_NET *432 0.00810963
*CONN
*I *1994:CLK I *D sky130_fd_sc_hd__dfrtp_4
*I *2000:CLK I *D sky130_fd_sc_hd__dfrtp_1
*I *1996:CLK I *D sky130_fd_sc_hd__dfrtp_4
*I *1920:CLK I *D sky130_fd_sc_hd__dfrtp_1
*I *1927:CLK I *D sky130_fd_sc_hd__dfrtp_1
*I *1922:CLK I *D sky130_fd_sc_hd__dfrtp_1
*I *1926:CLK I *D sky130_fd_sc_hd__dfrtp_1
*I *1921:CLK I *D sky130_fd_sc_hd__dfrtp_1
*I *1925:CLK I *D sky130_fd_sc_hd__dfrtp_1
*I *2101:A I *D sky130_fd_sc_hd__clkinv_2
*I *1987:CLK I *D sky130_fd_sc_hd__dfxtp_1
*I *2085:X O *D sky130_fd_sc_hd__clkbuf_8
*CAP
1 *1994:CLK 6.98035e-05
2 *2000:CLK 0.00036363
3 *1996:CLK 0
4 *1920:CLK 0
5 *1927:CLK 0.000230699
6 *1922:CLK 0
7 *1926:CLK 0.000118933
8 *1921:CLK 2.70741e-05
9 *1925:CLK 0
10 *2101:A 0
11 *1987:CLK 0.000435427
12 *2085:X 0
13 *432:98 0.000742687
14 *432:67 0.000490456
15 *432:56 0.000491362
16 *432:45 0.00054579
17 *432:41 0.000766195
18 *432:32 0.000626081
19 *432:25 0.000265929
20 *432:10 0.000618387
21 *432:8 0.000590482
22 *432:4 9.82683e-05
23 *1926:CLK *1926:D 2.75145e-05
24 *1926:CLK *1996:RESET_B 0.000184858
25 *1927:CLK *1922:D 2.69174e-05
26 *1927:CLK *1926:D 0
27 *1927:CLK *1927:D 2.75145e-05
28 *1927:CLK *438:117 4.85494e-05
29 *2000:CLK *1996:D 5.47473e-05
30 *2000:CLK *2000:D 7.34286e-05
31 *2000:CLK *450:226 1.73877e-05
32 *432:41 *1920:D 4.82863e-05
33 *432:41 *1925:D 7.35729e-05
34 *432:41 *1925:RESET_B 0.000221259
35 *432:45 *1664:B 0
36 *432:56 *1921:D 5.39718e-05
37 *432:56 *1926:D 0
38 *432:67 *1926:D 0
39 *432:98 *1994:D 0
40 *432:98 *1995:D 0
41 *1704:A *2000:CLK 0.000317507
42 *1704:B *2000:CLK 0.000181376
43 *1825:A0 *1987:CLK 0
44 *1825:A0 *432:10 0
45 *1870:A1 *1987:CLK 0
46 *1987:D *1987:CLK 1.43717e-05
47 *1987:D *1994:CLK 5.34747e-05
48 *1987:D *432:8 1.03423e-05
49 *1987:D *432:10 0
50 *1995:CLK *432:98 0
51 *2116:A *432:98 0
52 *201:20 *432:45 0
53 *227:8 *432:98 0
54 *228:8 *2000:CLK 0.000141599
55 *411:14 *432:45 0
56 *413:10 *2000:CLK 4.00896e-05
57 *413:23 *2000:CLK 1.16578e-05
58 *413:76 *2000:CLK 0
*RES
1 *2085:X *432:4 1.6 
2 *432:4 *432:8 2.45 
3 *432:8 *432:10 2.655 
4 *432:10 *1987:CLK 9.84 
5 *432:10 *432:25 2 
6 *432:25 *2101:A 1.6 
7 *432:25 *432:32 3.9 
8 *432:32 *1925:CLK 1.6 
9 *432:32 *432:41 7.365 
10 *432:41 *432:45 8.225 
11 *432:45 *1921:CLK 4.05 
12 *432:45 *432:56 2.145 
13 *432:56 *1926:CLK 6.465 
14 *432:56 *432:67 3.93 
15 *432:67 *1922:CLK 3.6 
16 *432:67 *1927:CLK 7.785 
17 *432:41 *1920:CLK 1.6 
18 *432:8 *432:98 7.97 
19 *432:98 *1996:CLK 1.6 
20 *432:98 *2000:CLK 14.195 
21 *432:4 *1994:CLK 3.1 
*END

*D_NET *433 0.0104614
*CONN
*I *1937:CLK I *D sky130_fd_sc_hd__dfxtp_1
*I *2059:CLK I *D sky130_fd_sc_hd__dfxtp_1
*I *1896:CLK I *D sky130_fd_sc_hd__dfxtp_1
*I *1932:CLK I *D sky130_fd_sc_hd__dfxtp_1
*I *1964:CLK I *D sky130_fd_sc_hd__dfxtp_1
*I *1956:CLK I *D sky130_fd_sc_hd__dfxtp_1
*I *1980:CLK I *D sky130_fd_sc_hd__dfxtp_1
*I *2054:CLK I *D sky130_fd_sc_hd__dfxtp_1
*I *1983:CLK I *D sky130_fd_sc_hd__dfxtp_1
*I *2066:CLK I *D sky130_fd_sc_hd__dfxtp_1
*I *1899:CLK I *D sky130_fd_sc_hd__dfxtp_1
*I *1967:CLK I *D sky130_fd_sc_hd__dfxtp_1
*I *1959:CLK I *D sky130_fd_sc_hd__dfxtp_1
*I *2086:X O *D sky130_fd_sc_hd__clkbuf_8
*CAP
1 *1937:CLK 0.00014049
2 *2059:CLK 5.96639e-05
3 *1896:CLK 6.45453e-05
4 *1932:CLK 1.95057e-05
5 *1964:CLK 0.000125346
6 *1956:CLK 3.7103e-05
7 *1980:CLK 0
8 *2054:CLK 6.55896e-05
9 *1983:CLK 0
10 *2066:CLK 0.000217666
11 *1899:CLK 2.08101e-05
12 *1967:CLK 0.000182874
13 *1959:CLK 0
14 *2086:X 2.2266e-05
15 *433:124 0.000124209
16 *433:122 0.000300895
17 *433:93 0.00139654
18 *433:87 0.0012744
19 *433:80 3.05416e-05
20 *433:76 0.000238155
21 *433:62 6.55896e-05
22 *433:22 0.000617418
23 *433:16 0.00105066
24 *433:14 0.000888811
25 *433:10 0.000320303
26 *433:8 0.000334743
27 *2066:CLK *453:90 8.47455e-05
28 *433:8 *453:131 4.82919e-05
29 *433:10 *453:90 0
30 *433:10 *453:116 0
31 *433:14 *453:90 0
32 *1631:S1 *1937:CLK 0.000344978
33 *1631:S1 *433:122 0.000160611
34 *1733:B *2059:CLK 8.49205e-05
35 *1733:B *433:122 9.71067e-05
36 *1819:S *433:10 1.53032e-05
37 *1819:S *433:76 7.21296e-06
38 *1819:S *433:122 8.18098e-05
39 *1899:D *433:16 0.00020525
40 *1932:D *1932:CLK 5.83121e-06
41 *1932:D *433:10 6.55328e-05
42 *1932:D *433:76 8.5225e-05
43 *1956:D *433:93 9.66841e-05
44 *1959:D *1967:CLK 0
45 *1959:D *433:22 0
46 *1964:D *1956:CLK 0
47 *1964:D *1964:CLK 0
48 *1980:D *1932:CLK 9.80032e-06
49 *1980:D *433:80 4.82919e-05
50 *1980:D *433:93 1.54588e-05
51 *2069:A *2054:CLK 9.66106e-05
52 *262:92 *433:10 0.000508319
53 *262:92 *433:14 0.000132961
54 *262:115 *433:10 8.30853e-06
55 *262:115 *433:76 0.000166302
56 *262:115 *433:122 0.000115646
57 *270:47 *1937:CLK 0.000150888
58 *270:47 *433:122 2.12832e-05
59 *393:10 *433:93 0.000120655
60 *404:8 *433:16 8.52845e-05
*RES
1 *2086:X *433:8 4.05 
2 *433:8 *433:10 6.225 
3 *433:10 *433:14 3.635 
4 *433:14 *433:16 8.73 
5 *433:16 *433:22 8.225 
6 *433:22 *1959:CLK 3.6 
7 *433:22 *1967:CLK 6.45 
8 *433:16 *1899:CLK 1.96 
9 *433:14 *2066:CLK 9.14 
10 *433:10 *433:62 2 
11 *433:62 *1983:CLK 1.6 
12 *433:62 *2054:CLK 3.085 
13 *433:8 *433:76 2.145 
14 *433:76 *433:80 2.45 
15 *433:80 *1980:CLK 1.6 
16 *433:80 *433:87 0.36 
17 *433:87 *433:93 15.83 
18 *433:93 *1956:CLK 4.215 
19 *433:93 *1964:CLK 5.43 
20 *433:87 *1932:CLK 2.05 
21 *433:76 *433:122 4.185 
22 *433:122 *433:124 2 
23 *433:124 *1896:CLK 2.395 
24 *433:124 *2059:CLK 2.74 
25 *433:122 *1937:CLK 8.235 
*END

*D_NET *434 0.00568816
*CONN
*I *2056:CLK I *D sky130_fd_sc_hd__dfxtp_1
*I *1934:CLK I *D sky130_fd_sc_hd__dfxtp_1
*I *1953:CLK I *D sky130_fd_sc_hd__dfxtp_1
*I *1943:CLK I *D sky130_fd_sc_hd__dfxtp_1
*I *2102:A I *D sky130_fd_sc_hd__clkinvlp_4
*I *1935:CLK I *D sky130_fd_sc_hd__dfxtp_1
*I *1948:CLK I *D sky130_fd_sc_hd__dfxtp_1
*I *2057:CLK I *D sky130_fd_sc_hd__dfxtp_1
*I *1940:CLK I *D sky130_fd_sc_hd__dfxtp_1
*I *2087:X O *D sky130_fd_sc_hd__clkbuf_8
*CAP
1 *2056:CLK 7.96965e-05
2 *1934:CLK 3.86613e-05
3 *1953:CLK 8.57863e-05
4 *1943:CLK 0.000185583
5 *2102:A 0
6 *1935:CLK 3.07736e-05
7 *1948:CLK 0
8 *2057:CLK 0.000216103
9 *1940:CLK 0
10 *2087:X 0
11 *434:74 0.000124448
12 *434:72 0.000338798
13 *434:59 0.000483369
14 *434:50 0.000167153
15 *434:36 3.07736e-05
16 *434:23 0.000339656
17 *434:12 0.000273765
18 *434:4 0.00027868
19 *1638:A *1943:CLK 8.65905e-05
20 *1638:B *1935:CLK 1.56428e-05
21 *1638:B *1943:CLK 4.82919e-05
22 *1644:A1 *1943:CLK 1.19928e-05
23 *1734:S1 *434:12 7.70938e-05
24 *1735:A2 *1943:CLK 7.23908e-05
25 *1735:A2 *434:72 5.4256e-05
26 *1770:S *2057:CLK 0
27 *1770:S *434:12 0.000341546
28 *1770:S *434:23 0
29 *2069:A *2057:CLK 0.000160483
30 *197:16 *1943:CLK 0.000183043
31 *197:16 *2056:CLK 0.000153794
32 *197:16 *434:72 0.000543977
33 *231:55 *1934:CLK 3.09179e-05
34 *231:55 *1953:CLK 6.0011e-05
35 *253:12 *2057:CLK 0.000183738
36 *253:12 *434:12 0
37 *253:12 *434:23 0.000181376
38 *263:44 *434:23 0.000163199
39 *264:30 *434:12 8.49205e-05
40 *264:30 *434:50 0.000311288
41 *264:30 *434:59 8.40213e-05
42 *267:32 *434:23 9.4087e-05
43 *408:402 *434:12 2.42236e-05
44 *408:431 *434:12 4.80285e-05
45 *409:166 *2056:CLK 0
46 *409:166 *434:72 0
47 *409:172 *1943:CLK 0
48 *409:172 *434:72 0
*RES
1 *2087:X *434:4 1.6 
2 *434:4 *434:12 8.725 
3 *434:12 *1940:CLK 1.6 
4 *434:12 *434:23 5.63 
5 *434:23 *2057:CLK 8.265 
6 *434:23 *434:36 2 
7 *434:36 *1948:CLK 1.6 
8 *434:36 *1935:CLK 2.05 
9 *434:4 *434:50 2.865 
10 *434:50 *2102:A 1.6 
11 *434:50 *434:59 2.795 
12 *434:59 *1943:CLK 7.92 
13 *434:59 *434:72 6.48 
14 *434:72 *434:74 2 
15 *434:74 *1953:CLK 3.085 
16 *434:74 *1934:CLK 2.395 
17 *434:72 *2056:CLK 5.49 
*END

*D_NET *435 0.000613793
*CONN
*I *1681:B1 I *D sky130_fd_sc_hd__o31a_1
*I *2104:X O *D sky130_fd_sc_hd__clkbuf_1
*CAP
1 *1681:B1 0.000205917
2 *2104:X 0.000205917
3 *1681:B1 *1678:A1 1.56428e-05
4 *1681:B1 *462:29 0
5 *1681:B1 *485:8 0.000136877
6 *214:14 *1681:B1 0
7 *215:12 *1681:B1 4.94404e-05
*RES
1 *2104:X *1681:B1 10.32 
*END

*D_NET *436 0.0234455
*CONN
*I *1802:A1 I *D sky130_fd_sc_hd__mux2_1
*I *1821:A1 I *D sky130_fd_sc_hd__mux2_1
*I *1766:A1 I *D sky130_fd_sc_hd__mux2_1
*I *1784:A1 I *D sky130_fd_sc_hd__mux2_1
*I *1775:A0 I *D sky130_fd_sc_hd__mux2_1
*I *1876:A0 I *D sky130_fd_sc_hd__mux2_1
*I *1858:A0 I *D sky130_fd_sc_hd__mux2_1
*I *1831:A1 I *D sky130_fd_sc_hd__mux2_1
*I *1867:A1 I *D sky130_fd_sc_hd__mux2_1
*I *1812:A0 I *D sky130_fd_sc_hd__mux2_1
*I *1849:A1 I *D sky130_fd_sc_hd__mux2_1
*I *1840:A0 I *D sky130_fd_sc_hd__mux2_1
*I *1893:A1 I *D sky130_fd_sc_hd__mux2_1
*I *1884:A0 I *D sky130_fd_sc_hd__mux2_1
*I *1757:A0 I *D sky130_fd_sc_hd__mux2_1
*I *1793:A0 I *D sky130_fd_sc_hd__mux2_1
*I *2105:X O *D sky130_fd_sc_hd__clkbuf_4
*CAP
1 *1802:A1 0.000217031
2 *1821:A1 0
3 *1766:A1 0
4 *1784:A1 0.000639497
5 *1775:A0 8.4162e-05
6 *1876:A0 3.12327e-05
7 *1858:A0 0
8 *1831:A1 0.000171397
9 *1867:A1 0
10 *1812:A0 0
11 *1849:A1 0.000134964
12 *1840:A0 0.000193361
13 *1893:A1 0.000100148
14 *1884:A0 0
15 *1757:A0 0
16 *1793:A0 0.00010704
17 *2105:X 0.000415574
18 *436:133 0.000988285
19 *436:104 0.0011158
20 *436:100 0.000376484
21 *436:94 0.000499572
22 *436:92 0.000280584
23 *436:79 0.000523767
24 *436:77 0.00105244
25 *436:69 0.00121118
26 *436:58 0.000418778
27 *436:52 0.000817732
28 *436:48 0.000698799
29 *436:36 0.00112045
30 *436:25 0.000726756
31 *436:21 0.000812316
32 *436:10 0.000841911
33 *436:36 *457:18 6.55328e-05
34 *436:48 *457:18 7.25432e-05
35 *436:48 *457:29 0
36 *436:48 *457:31 0
37 *436:58 *457:31 9.57632e-05
38 *1632:A2 *436:48 0.000127485
39 *1650:S0 *436:133 0
40 *1653:A0 *436:21 0
41 *1653:A2 *1802:A1 0
42 *1653:A2 *436:21 0
43 *1653:A2 *436:25 0.000142661
44 *1655:A3 *436:69 0.000153482
45 *1657:A1 *436:92 0.000229203
46 *1658:A0 *436:133 6.05336e-05
47 *1658:A3 *436:133 4.66108e-05
48 *1733:A *1775:A0 0.000123225
49 *1734:A2 *436:77 8.97486e-05
50 *1734:S0 *436:77 0.000877287
51 *1737:S0 *1840:A0 0
52 *1739:A1 *436:77 4.94404e-05
53 *1757:S *436:36 8.52845e-05
54 *1766:A0 *436:52 8.76033e-05
55 *1766:A0 *436:58 0.000164679
56 *1770:S *436:77 0.000157716
57 *1775:A1 *436:69 0
58 *1775:S *436:69 2.67022e-05
59 *1775:S *436:77 0.000106467
60 *1779:A0 *436:77 0
61 *1779:S *1784:A1 4.66826e-05
62 *1793:A1 *436:21 0
63 *1802:A0 *1802:A1 2.75229e-05
64 *1812:A1 *436:133 8.49205e-05
65 *1821:A0 *436:48 0.000136884
66 *1821:S *436:48 0.000440039
67 *1831:A0 *1831:A1 0.000351268
68 *1831:S *1831:A1 2.75229e-05
69 *1840:A1 *1840:A0 4.05053e-05
70 *1840:S *1840:A0 4.77719e-05
71 *1849:A0 *1849:A1 0.000278111
72 *1849:S *1849:A1 4.99619e-05
73 *1858:A1 *1831:A1 4.82919e-05
74 *1858:S *1831:A1 2.75229e-05
75 *1858:S *436:92 0.000709549
76 *1862:S *1840:A0 5.54475e-05
77 *1866:S *1840:A0 6.94735e-06
78 *1866:S *436:133 0.000126704
79 *1867:A0 *436:133 1.25362e-05
80 *1875:S *436:77 0.000274308
81 *1883:A1 *436:48 0
82 *1883:S *436:52 9.54469e-05
83 *1883:S *436:58 0.00038674
84 *1884:A1 *436:69 4.66742e-05
85 *1888:S *436:92 0
86 *1893:A0 *1893:A1 4.82863e-05
87 *1893:A0 *436:92 8.42239e-05
88 *1901:D *436:21 0
89 *1901:D *436:25 0.000161837
90 *1945:CLK *1784:A1 0.000123225
91 *1945:D *1784:A1 7.7152e-05
92 *1948:D *436:77 0.000616337
93 *1961:D *436:10 9.50342e-06
94 *1961:D *436:21 8.59365e-05
95 *1968:CLK *436:36 4.28483e-05
96 *1968:CLK *436:48 3.26653e-05
97 *1969:D *1802:A1 0
98 *2010:D *1840:A0 4.6368e-06
99 *2043:D *436:133 9.03081e-05
100 *2050:D *436:77 9.71067e-05
101 *2058:D *436:48 9.30787e-05
102 *231:55 *436:69 0.000121094
103 *231:59 *436:58 4.66108e-05
104 *231:59 *436:69 7.40446e-05
105 *253:12 *436:77 0
106 *263:55 *436:69 0
107 *266:71 *436:10 0
108 *269:107 *436:133 7.21296e-06
109 *270:47 *436:48 0.000113964
110 *276:61 *436:92 3.68682e-05
111 *276:61 *436:100 0.000386221
112 *276:67 *436:100 3.92496e-05
113 *276:67 *436:104 8.65961e-05
114 *277:38 *436:77 0.000128451
115 *278:41 *436:92 0
116 *310:10 *436:69 2.24336e-05
117 *318:10 *1784:A1 1.4399e-05
118 *334:10 *436:69 0
119 *390:12 *436:133 0.000139933
120 *407:311 *436:133 0.000115816
121 *407:373 *436:77 0.000482274
122 *408:402 *436:69 0
123 *416:20 *436:77 2.67022e-05
124 *416:39 *1876:A0 3.83041e-05
125 *416:39 *436:79 8.40269e-05
126 *420:16 *436:10 8.31173e-05
127 *420:22 *436:10 4.80182e-05
128 *420:22 *436:21 0
129 *420:35 *436:21 0
130 *427:94 *436:100 1.16578e-05
131 *427:94 *436:104 0.00010877
*RES
1 *2105:X *436:10 9.3 
2 *436:10 *1793:A0 4.74 
3 *436:10 *436:21 5.46 
4 *436:21 *436:25 7.625 
5 *436:25 *1757:A0 1.6 
6 *436:25 *436:36 9.35 
7 *436:36 *436:48 17.105 
8 *436:48 *436:52 3.125 
9 *436:52 *436:58 7.235 
10 *436:58 *1884:A0 1.6 
11 *436:58 *436:69 8.465 
12 *436:69 *436:77 27.905 
13 *436:77 *436:79 1.83 
14 *436:79 *1893:A1 2.74 
15 *436:79 *436:92 12.265 
16 *436:92 *436:94 0.36 
17 *436:94 *436:100 6 
18 *436:100 *436:104 3.83 
19 *436:104 *1840:A0 7.23 
20 *436:104 *436:133 18.81 
21 *436:133 *1849:A1 4.825 
22 *436:133 *1812:A0 1.6 
23 *436:100 *1867:A1 1.6 
24 *436:94 *1831:A1 5.845 
25 *436:92 *1858:A0 1.6 
26 *436:77 *1876:A0 2.05 
27 *436:69 *1775:A0 4.74 
28 *436:52 *1784:A1 12.675 
29 *436:48 *1766:A1 1.6 
30 *436:36 *1821:A1 3.6 
31 *436:21 *1802:A1 6.96 
*END

*D_NET *437 0.00106899
*CONN
*I *1699:B1_N I *D sky130_fd_sc_hd__a21boi_2
*I *2106:X O *D sky130_fd_sc_hd__clkbuf_1
*CAP
1 *1699:B1_N 0.000400502
2 *2106:X 0.000400502
3 *1699:B1_N *438:41 5.1877e-05
4 *1667:S *1699:B1_N 0.000108548
5 *1673:A *1699:B1_N 2.75145e-05
6 *1699:A1 *1699:B1_N 8.00465e-05
*RES
1 *2106:X *1699:B1_N 13.8 
*END

*D_NET *438 0.01856
*CONN
*I *1998:RESET_B I *D sky130_fd_sc_hd__dfrtp_2
*I *1997:RESET_B I *D sky130_fd_sc_hd__dfrtp_1
*I *2000:RESET_B I *D sky130_fd_sc_hd__dfrtp_1
*I *1928:RESET_B I *D sky130_fd_sc_hd__dfrtp_1
*I *1923:RESET_B I *D sky130_fd_sc_hd__dfrtp_1
*I *1924:RESET_B I *D sky130_fd_sc_hd__dfrtp_1
*I *1999:RESET_B I *D sky130_fd_sc_hd__dfrtp_1
*I *1929:RESET_B I *D sky130_fd_sc_hd__dfrtp_1
*I *2001:RESET_B I *D sky130_fd_sc_hd__dfrtp_1
*I *2002:RESET_B I *D sky130_fd_sc_hd__dfrtp_1
*I *1927:RESET_B I *D sky130_fd_sc_hd__dfrtp_1
*I *1922:RESET_B I *D sky130_fd_sc_hd__dfrtp_1
*I *1995:RESET_B I *D sky130_fd_sc_hd__dfrtp_4
*I *1996:RESET_B I *D sky130_fd_sc_hd__dfrtp_4
*I *1926:RESET_B I *D sky130_fd_sc_hd__dfrtp_1
*I *1921:RESET_B I *D sky130_fd_sc_hd__dfrtp_1
*I *1994:RESET_B I *D sky130_fd_sc_hd__dfrtp_4
*I *1925:RESET_B I *D sky130_fd_sc_hd__dfrtp_1
*I *1920:RESET_B I *D sky130_fd_sc_hd__dfrtp_1
*I *2107:X O *D sky130_fd_sc_hd__clkbuf_8
*CAP
1 *1998:RESET_B 0.000286869
2 *1997:RESET_B 3.26563e-05
3 *2000:RESET_B 0.000217268
4 *1928:RESET_B 0.000157054
5 *1923:RESET_B 0
6 *1924:RESET_B 0
7 *1999:RESET_B 0.000653728
8 *1929:RESET_B 0.000713591
9 *2001:RESET_B 6.22696e-06
10 *2002:RESET_B 0.000221883
11 *1927:RESET_B 9.22957e-06
12 *1922:RESET_B 5.40799e-05
13 *1995:RESET_B 0.000152098
14 *1996:RESET_B 0.000960568
15 *1926:RESET_B 0.000934945
16 *1921:RESET_B 4.26218e-05
17 *1994:RESET_B 0.000120211
18 *1925:RESET_B 0.0009788
19 *1920:RESET_B 8.49405e-06
20 *2107:X 0.000383171
21 *438:185 0.000394241
22 *438:183 0.000431187
23 *438:166 0.000446509
24 *438:155 0.000567383
25 *438:123 0.000462349
26 *438:117 0.00119808
27 *438:103 0.0009562
28 *438:99 0.000376118
29 *438:87 0.000314161
30 *438:55 0.000448277
31 *438:41 0.000507698
32 *438:12 0.00159842
33 *1920:RESET_B *1664:B 1.23607e-05
34 *1925:RESET_B *1664:B 6.15143e-05
35 *1925:RESET_B *1920:D 4.65641e-05
36 *1926:RESET_B *1921:D 0.000120741
37 *1927:RESET_B *1922:D 2.40101e-05
38 *1928:RESET_B *1903:D 0
39 *1929:RESET_B *1925:D 3.18137e-05
40 *1929:RESET_B *1926:D 0
41 *1994:RESET_B *1925:D 0.000130072
42 *1995:RESET_B *1925:D 7.63204e-05
43 *1996:RESET_B *1921:D 2.99035e-05
44 *1998:RESET_B *1910:D 0
45 *1998:RESET_B *1997:D 5.2089e-05
46 *1998:RESET_B *1998:D 0
47 *1998:RESET_B *2002:D 0
48 *1999:RESET_B *1908:D 0
49 *1999:RESET_B *1910:D 0
50 *1999:RESET_B *1925:D 0
51 *1999:RESET_B *1929:D 0.000112855
52 *1999:RESET_B *1999:D 0
53 *2000:RESET_B *1706:A3 0.000137819
54 *2000:RESET_B *1997:D 4.43871e-06
55 *2001:RESET_B *447:18 1.13009e-05
56 *2002:RESET_B *1910:D 8.8266e-05
57 *2002:RESET_B *447:18 8.87196e-05
58 *438:12 *1664:B 2.47313e-05
59 *438:41 *2118:A 0
60 *438:55 *1663:A 9.54399e-05
61 *438:87 *1663:A 9.3062e-06
62 *438:103 *1922:D 4.21973e-05
63 *438:117 *1922:D 0.000145387
64 *438:117 *1925:D 0.000147066
65 *438:117 *1926:D 0
66 *438:117 *1927:D 4.82863e-05
67 *438:123 *447:18 2.79977e-05
68 *438:155 *1661:B 0
69 *438:155 *467:12 0
70 *438:166 *1661:B 0
71 *438:166 *1903:D 0
72 *438:166 *1909:D 0
73 *438:166 *1929:D 0
74 *438:185 *1997:D 0.000140844
75 full *438:12 0
76 *1663:B *438:87 0.000120894
77 *1667:S *1926:RESET_B 4.82919e-05
78 *1667:S *438:41 0
79 *1667:S *438:55 0
80 *1670:B1 *438:155 0
81 *1672:A1 *438:99 4.92206e-05
82 *1672:A1 *438:155 4.31189e-05
83 *1672:A2 *438:87 0.000180682
84 *1672:A2 *438:99 0.000162318
85 *1673:B *438:41 9.50114e-05
86 *1699:A1 *438:41 0.000139245
87 *1699:B1_N *438:41 5.1877e-05
88 *1700:A *1998:RESET_B 0
89 *1706:A2 *1995:RESET_B 6.28765e-05
90 *1710:A *1998:RESET_B 0
91 *1710:A *438:185 0
92 *1711:A1 *2000:RESET_B 0
93 *1711:A1 *438:185 0
94 *1926:CLK *1996:RESET_B 0.000184858
95 *1927:CLK *438:117 4.85494e-05
96 *1929:CLK *1999:RESET_B 1.83847e-05
97 *2001:CLK *2002:RESET_B 0.000137819
98 *2068:A *1999:RESET_B 0.0001638
99 *165:29 *1997:RESET_B 0.00015737
100 *198:10 *438:155 0.000129047
101 *198:12 *438:99 4.38051e-05
102 *198:12 *438:155 0.00013994
103 *199:12 *438:87 0.000224487
104 *199:12 *438:99 0.000109009
105 *209:10 *438:41 2.42236e-05
106 *209:10 *438:55 1.15688e-05
107 *209:10 *438:87 0
108 *411:14 *1994:RESET_B 0
109 *411:175 *438:185 0
110 *411:179 *1997:RESET_B 5.23485e-05
111 *411:203 *438:185 0
112 *412:10 *1995:RESET_B 6.57706e-05
113 *412:14 *1995:RESET_B 0.00015737
114 *412:271 *1921:RESET_B 4.70393e-05
115 *412:271 *1995:RESET_B 7.00889e-06
116 *412:271 *438:41 0.000159957
117 *413:10 *1996:RESET_B 3.38342e-05
118 *413:76 *2000:RESET_B 0.000124895
119 *423:12 *1998:RESET_B 0
120 *423:14 *1998:RESET_B 0
121 *432:41 *1925:RESET_B 0.000221259
*RES
1 *2107:X *438:12 11.855 
2 *438:12 *1920:RESET_B 0.3975 
3 *438:12 *1925:RESET_B 11.5725 
4 *1925:RESET_B *1994:RESET_B 6.655 
5 *438:12 *438:41 8.99 
6 *438:41 *1921:RESET_B 2.7425 
7 *438:41 *438:55 4.175 
8 *438:55 *1926:RESET_B 2.4675 
9 *1926:RESET_B *1996:RESET_B 10.275 
10 *1996:RESET_B *1995:RESET_B 7.7575 
11 *438:55 *438:87 7.25 
12 *438:87 *1922:RESET_B 2.7575 
13 *438:87 *438:99 2.4 
14 *438:99 *438:103 2.795 
15 *438:103 *1927:RESET_B 0.3975 
16 *438:103 *438:117 14.93 
17 *438:117 *438:123 4.88 
18 *438:123 *2002:RESET_B 4.5375 
19 *438:123 *2001:RESET_B 0.3975 
20 *438:117 *1929:RESET_B 3.125 
21 *1929:RESET_B *1999:RESET_B 15.4225 
22 *438:99 *438:155 5.46 
23 *438:155 *1924:RESET_B 2 
24 *438:155 *438:166 4.74 
25 *438:166 *1923:RESET_B 2 
26 *438:166 *1928:RESET_B 4.655 
27 *2002:RESET_B *438:183 2 
28 *438:183 *438:185 2.91 
29 *438:185 *2000:RESET_B 5.9525 
30 *438:185 *1997:RESET_B 3.4325 
31 *438:183 *1998:RESET_B 6.185 
*END

*D_NET *439 0.000594205
*CONN
*I *2117:A I *D sky130_fd_sc_hd__buf_1
*I *1680:Y O *D sky130_fd_sc_hd__nor3_1
*CAP
1 *2117:A 0.000170902
2 *1680:Y 0.000170902
3 *2117:A *485:8 0.000104218
4 empty *2117:A 3.38178e-05
5 *1680:B *2117:A 4.82863e-05
6 *2108:A *2117:A 6.60795e-05
*RES
1 *1680:Y *2117:A 11.325 
*END

*D_NET *440 0.000453001
*CONN
*I *2118:A I *D sky130_fd_sc_hd__buf_1
*I *1673:X O *D sky130_fd_sc_hd__and2_1
*CAP
1 *2118:A 0.000226501
2 *1673:X 0.000226501
3 *2106:A *2118:A 0
4 *438:41 *2118:A 0
*RES
1 *1673:X *2118:A 10.665 
*END

*D_NET *441 0.000293662
*CONN
*I *2119:A I *D sky130_fd_sc_hd__buf_1
*I *1912:Q O *D sky130_fd_sc_hd__dfxtp_1
*CAP
1 *2119:A 0.000140979
2 *1912:Q 0.000140979
3 *2119:A *1661:B 0
4 rdata[0] *2119:A 1.17036e-05
*RES
1 *1912:Q *2119:A 9.285 
*END

*D_NET *442 0.000678636
*CONN
*I *2120:A I *D sky130_fd_sc_hd__buf_1
*I *1913:Q O *D sky130_fd_sc_hd__dfxtp_1
*CAP
1 *2120:A 0.000305856
2 *1913:Q 0.000305856
3 *2120:A *452:10 6.6925e-05
4 *400:10 *2120:A 0
*RES
1 *1913:Q *2120:A 12.36 
*END

*D_NET *443 0.000653285
*CONN
*I *2121:A I *D sky130_fd_sc_hd__buf_1
*I *1914:Q O *D sky130_fd_sc_hd__dfxtp_1
*CAP
1 *2121:A 0.000187584
2 *1914:Q 0.000187584
3 *2121:A *2123:A 0.000278117
*RES
1 *1914:Q *2121:A 7.025 
*END

*D_NET *444 0.00110185
*CONN
*I *2122:A I *D sky130_fd_sc_hd__buf_1
*I *1915:Q O *D sky130_fd_sc_hd__dfxtp_1
*CAP
1 *2122:A 0.000443274
2 *1915:Q 0.000443274
3 *2122:A *2126:A 0
4 *1918:CLK *2122:A 0.000215306
*RES
1 *1915:Q *2122:A 13.425 
*END

*D_NET *445 0.00242486
*CONN
*I *2123:A I *D sky130_fd_sc_hd__buf_1
*I *1916:Q O *D sky130_fd_sc_hd__dfxtp_1
*CAP
1 *2123:A 0.00100396
2 *1916:Q 0.00100396
3 *2123:A *452:10 5.05521e-05
4 *1914:D *2123:A 0
5 *2121:A *2123:A 0.000278117
6 *266:35 *2123:A 8.8266e-05
*RES
1 *1916:Q *2123:A 23.58 
*END

*D_NET *446 0.0177392
*CONN
*I *1911:RESET_B I *D sky130_fd_sc_hd__dfrtp_1
*I *1906:RESET_B I *D sky130_fd_sc_hd__dfrtp_1
*I *2035:RESET_B I *D sky130_fd_sc_hd__dfrtp_1
*I *2031:RESET_B I *D sky130_fd_sc_hd__dfrtp_4
*I *2029:RESET_B I *D sky130_fd_sc_hd__dfrtp_4
*I *2028:RESET_B I *D sky130_fd_sc_hd__dfrtp_4
*I *2030:RESET_B I *D sky130_fd_sc_hd__dfrtp_4
*I *2034:RESET_B I *D sky130_fd_sc_hd__dfrtp_1
*I *2027:RESET_B I *D sky130_fd_sc_hd__dfrtp_4
*I *2032:RESET_B I *D sky130_fd_sc_hd__dfrtp_1
*I *1907:RESET_B I *D sky130_fd_sc_hd__dfrtp_1
*I *1910:RESET_B I *D sky130_fd_sc_hd__dfrtp_1
*I *2033:RESET_B I *D sky130_fd_sc_hd__dfrtp_1
*I *1902:RESET_B I *D sky130_fd_sc_hd__dfrtp_1
*I *1905:RESET_B I *D sky130_fd_sc_hd__dfrtp_1
*I *1904:RESET_B I *D sky130_fd_sc_hd__dfrtp_1
*I *1909:RESET_B I *D sky130_fd_sc_hd__dfrtp_1
*I *1903:RESET_B I *D sky130_fd_sc_hd__dfrtp_1
*I *1908:RESET_B I *D sky130_fd_sc_hd__dfrtp_1
*I *2108:X O *D sky130_fd_sc_hd__clkbuf_8
*CAP
1 *1911:RESET_B 6.14937e-05
2 *1906:RESET_B 0.000342982
3 *2035:RESET_B 2.47865e-05
4 *2031:RESET_B 0.000151784
5 *2029:RESET_B 4.838e-05
6 *2028:RESET_B 0.000167734
7 *2030:RESET_B 0.00111003
8 *2034:RESET_B 0.000122484
9 *2027:RESET_B 0.000578484
10 *2032:RESET_B 0
11 *1907:RESET_B 9.97775e-05
12 *1910:RESET_B 2.47865e-05
13 *2033:RESET_B 0.00049102
14 *1902:RESET_B 0.000176457
15 *1905:RESET_B 2.48235e-05
16 *1904:RESET_B 0.00011054
17 *1909:RESET_B 0.000186272
18 *1903:RESET_B 0
19 *1908:RESET_B 0.000281899
20 *2108:X 0.000330754
21 *446:183 0.000543211
22 *446:151 0.000681912
23 *446:135 0.000958401
24 *446:131 0.000361943
25 *446:121 0.000438763
26 *446:86 0.000189472
27 *446:84 0.00019432
28 *446:82 0.000896019
29 *446:68 0.000620864
30 *446:59 0.000284931
31 *446:49 0.00022968
32 *446:14 0.000349935
33 *446:12 0.000236137
34 *446:10 0.000481784
35 *1904:RESET_B *1928:D 4.19967e-05
36 *1904:RESET_B *1929:D 6.28765e-05
37 *1908:RESET_B *1903:D 0.000609125
38 *1908:RESET_B *1909:D 0.000365327
39 *1908:RESET_B *1923:D 0.000120186
40 *1908:RESET_B *1929:D 0.000146968
41 *1909:RESET_B *1904:D 0.000116893
42 *1911:RESET_B *461:14 3.31204e-05
43 *1911:RESET_B *462:12 0
44 *2028:RESET_B *2028:D 0
45 *2033:RESET_B *460:10 7.40016e-05
46 *2034:RESET_B *461:14 0.000122331
47 *446:10 *1625:A 9.80032e-06
48 *446:10 *1627:A 2.75145e-05
49 *446:10 *1675:A_N 0.000107056
50 *446:10 *1675:B 7.25921e-06
51 *446:10 *459:29 1.32835e-05
52 *446:12 *1904:D 9.71067e-05
53 *446:12 *1929:D 0.000109221
54 *446:14 *1909:D 0.000200648
55 *446:14 *1929:D 0.000143501
56 *446:49 *1929:D 0.00015706
57 *446:59 *1674:A_N 0.00011852
58 *446:59 *1911:D 0
59 *446:59 *1929:D 0.00020613
60 *446:59 *461:14 8.97564e-05
61 *446:59 *462:12 0
62 *446:121 *1911:D 0.000173973
63 *446:131 *1911:D 4.43871e-06
64 *446:131 *462:12 0
65 *446:135 *1697:A 0.000116853
66 *446:151 *2029:D 0.000275548
67 *446:183 *461:14 0.000137195
68 *446:183 *462:12 0
69 *1677:A2 *446:10 2.59926e-05
70 *1678:C1 *446:59 1.34361e-05
71 *1689:A *2028:RESET_B 0
72 *1689:A *2029:RESET_B 0.000119071
73 *1691:A *446:151 0.00028271
74 *1691:B *446:151 0.000163199
75 *1902:CLK *2033:RESET_B 8.65961e-05
76 *1906:CLK *1906:RESET_B 5.0751e-05
77 *1908:CLK *1908:RESET_B 0.00028734
78 *1923:CLK *1908:RESET_B 0.00015639
79 *2030:CLK *2030:RESET_B 2.75145e-05
80 *2068:A *1907:RESET_B 0.000235585
81 *2068:A *446:82 7.06865e-05
82 *2068:A *446:84 0.000275362
83 *2068:A *446:86 0.000143266
84 *2071:A *2027:RESET_B 0.00042877
85 *216:18 *1905:RESET_B 2.40101e-05
86 *409:8 *2028:RESET_B 0
87 *410:8 *446:151 8.65905e-05
88 *418:84 *446:121 8.78735e-05
89 *418:84 *446:131 1.26626e-05
90 *418:97 *446:131 0.000196464
91 *418:97 *446:135 1.98826e-05
92 *418:110 *446:135 0.000117436
93 *418:135 *446:12 7.81876e-05
94 *418:135 *446:49 9.68709e-05
95 *418:135 *446:59 4.55632e-05
96 *418:137 *446:12 8.7974e-05
97 *418:137 *446:14 4.43871e-06
98 *418:139 *446:14 2.4997e-05
*RES
1 *2108:X *446:10 8.805 
2 *446:10 *446:12 3.42 
3 *446:12 *446:14 2.91 
4 *446:14 *1908:RESET_B 12.7925 
5 *446:14 *1903:RESET_B 2 
6 *446:12 *1909:RESET_B 3.4325 
7 *1909:RESET_B *1904:RESET_B 6.1225 
8 *446:10 *446:49 2.145 
9 *446:49 *1905:RESET_B 2.3975 
10 *446:49 *446:59 4.44 
11 *446:59 *1902:RESET_B 2 
12 *1902:RESET_B *446:68 2.4825 
13 *446:68 *2033:RESET_B 5.2425 
14 *2033:RESET_B *446:82 4.5725 
15 *446:82 *446:84 3.165 
16 *446:84 *446:86 1.635 
17 *446:86 *1910:RESET_B 2.45 
18 *446:86 *1907:RESET_B 4.655 
19 *446:84 *2032:RESET_B 2 
20 *446:82 *2027:RESET_B 9.4175 
21 *446:68 *446:121 5.675 
22 *446:121 *2034:RESET_B 4.1225 
23 *446:121 *446:131 4.185 
24 *446:131 *446:135 5.93 
25 *446:135 *2030:RESET_B 7.2225 
26 *2030:RESET_B *446:151 11.7425 
27 *446:151 *2028:RESET_B 4.655 
28 *446:151 *2029:RESET_B 3.0875 
29 *446:135 *2031:RESET_B 2.1375 
30 *446:131 *2035:RESET_B 2.45 
31 *446:59 *446:183 2.91 
32 *446:183 *1906:RESET_B 6.3125 
33 *446:183 *1911:RESET_B 3.125 
*END

*D_NET *447 0.0087217
*CONN
*I *2124:A I *D sky130_fd_sc_hd__buf_1
*I *1917:Q O *D sky130_fd_sc_hd__dfxtp_1
*CAP
1 *2124:A 3.55506e-05
2 *1917:Q 0.00322685
3 *447:18 0.0032624
4 *447:18 *1669:A 0.00026033
5 *447:18 *1669:B 0.000141323
6 *447:18 *1909:D 4.96151e-05
7 *447:18 *451:141 3.69334e-05
8 *1716:A3 *447:18 0.000222813
9 *1758:D *447:18 0.000123225
10 *1776:B_N *447:18 3.83194e-05
11 *1776:D *447:18 7.5277e-05
12 *1785:A *447:18 2.69297e-05
13 *1786:A1 *447:18 3.09164e-05
14 *1794:B *447:18 5.02121e-05
15 *1794:D *447:18 5.58206e-05
16 *2001:CLK *447:18 0.000184866
17 *2001:RESET_B *447:18 1.13009e-05
18 *2002:RESET_B *447:18 8.87196e-05
19 *198:10 *447:18 4.66108e-05
20 *263:6 *447:18 6.52265e-05
21 *263:32 *447:18 7.00889e-06
22 *411:126 *447:18 1.61428e-05
23 *411:207 *447:18 9.66021e-05
24 *412:121 *447:18 9.71444e-05
25 *412:123 *447:18 2.30292e-05
26 *412:125 *447:18 6.86863e-05
27 *416:96 *447:18 0.000351854
28 *438:123 *447:18 2.79977e-05
*RES
1 *1917:Q *447:18 49.79 
2 *447:18 *2124:A 2.215 
*END

*D_NET *448 0.000474088
*CONN
*I *2125:A I *D sky130_fd_sc_hd__buf_1
*I *1918:Q O *D sky130_fd_sc_hd__dfxtp_1
*CAP
1 *2125:A 0.000195485
2 *1918:Q 0.000195485
3 *2125:A *2126:A 0
4 *2125:A *452:10 8.31173e-05
*RES
1 *1918:Q *2125:A 10.665 
*END

*D_NET *449 0.00172408
*CONN
*I *2126:A I *D sky130_fd_sc_hd__buf_1
*I *1919:Q O *D sky130_fd_sc_hd__dfxtp_1
*CAP
1 *2126:A 0.000485178
2 *1919:Q 0.000485178
3 *2126:A *452:10 0
4 *2126:A *452:14 0
5 *1918:D *2126:A 7.54567e-05
6 *2122:A *2126:A 0
7 *2125:A *2126:A 0
8 *262:28 *2126:A 2.05641e-05
9 *262:36 *2126:A 0.000657701
*RES
1 *1919:Q *2126:A 17.865 
*END

*D_NET *450 0.0177808
*CONN
*I *1711:A4 I *D sky130_fd_sc_hd__a41o_1
*I *1706:A3 I *D sky130_fd_sc_hd__a31o_1
*I *1823:C I *D sky130_fd_sc_hd__and4bb_4
*I *1859:C I *D sky130_fd_sc_hd__and4bb_4
*I *1813:C I *D sky130_fd_sc_hd__and4bb_4
*I *1758:C I *D sky130_fd_sc_hd__and4b_4
*I *1700:B I *D sky130_fd_sc_hd__nor2_1
*I *1776:C I *D sky130_fd_sc_hd__and4bb_4
*I *1710:C I *D sky130_fd_sc_hd__nand4_4
*I *1794:C I *D sky130_fd_sc_hd__and4b_4
*I *1785:C I *D sky130_fd_sc_hd__nand4_4
*I *1767:B I *D sky130_fd_sc_hd__nand4b_4
*I *1749:B I *D sky130_fd_sc_hd__nand4b_4
*I *1885:C I *D sky130_fd_sc_hd__and4b_4
*I *1832:B I *D sky130_fd_sc_hd__nand4b_4
*I *1868:B I *D sky130_fd_sc_hd__nand4b_4
*I *1703:A2 I *D sky130_fd_sc_hd__a21oi_1
*I *1850:C I *D sky130_fd_sc_hd__nand4_4
*I *1804:C I *D sky130_fd_sc_hd__nand4_4
*I *1841:C I *D sky130_fd_sc_hd__and4b_4
*I *2116:X O *D sky130_fd_sc_hd__buf_8
*CAP
1 *1711:A4 0
2 *1706:A3 0.0003177
3 *1823:C 0
4 *1859:C 0
5 *1813:C 0
6 *1758:C 7.57699e-05
7 *1700:B 0.000169567
8 *1776:C 4.92096e-05
9 *1710:C 2.08101e-05
10 *1794:C 0.000295581
11 *1785:C 0
12 *1767:B 6.03088e-05
13 *1749:B 1.17375e-05
14 *1885:C 7.62473e-05
15 *1832:B 4.97531e-05
16 *1868:B 2.81101e-05
17 *1703:A2 0.000247941
18 *1850:C 0
19 *1804:C 1.85694e-05
20 *1841:C 0.000211913
21 *2116:X 0.000134741
22 *450:226 0.000528987
23 *450:196 0.000186607
24 *450:170 0.000284049
25 *450:161 0.000523868
26 *450:142 0.000733366
27 *450:140 0.000130992
28 *450:131 0.000109907
29 *450:118 0.000217019
30 *450:107 0.00016741
31 *450:96 0.000195786
32 *450:61 0.000355138
33 *450:50 0.00023433
34 *450:39 0.000210975
35 *450:22 0.000294804
36 *450:18 0.000182647
37 *450:16 0.00011799
38 *450:14 0.000367108
39 *450:12 0.00081652
40 *450:8 0.000795439
41 *1706:A3 *1908:D 0.000115474
42 *1706:A3 *2000:D 0.000127005
43 *450:8 *2000:D 4.82863e-05
44 *450:22 *451:115 3.76596e-05
45 *450:107 *451:115 0.000107666
46 *450:118 *451:115 7.00066e-05
47 *450:131 *451:115 3.31204e-05
48 *450:226 *2000:D 0.000252282
49 *1703:A1 *1703:A2 5.50605e-05
50 *1703:B1 *1703:A2 1.38736e-05
51 *1705:A *1700:B 0.000247394
52 *1705:B *1700:B 0.000162311
53 *1706:A2 *1706:A3 0.00018305
54 *1708:B *450:8 5.05437e-05
55 *1708:B *450:12 1.61831e-05
56 *1710:B *1710:C 0
57 *1711:A2 *450:226 0
58 *1712:B *1700:B 0.000535816
59 *1715:B *1776:C 1.1561e-05
60 *1717:B *450:161 2.65814e-06
61 *1758:B *1758:C 0.000308719
62 *1758:D *1758:C 0.000129099
63 *1767:A_N *1767:B 8.65961e-05
64 *1767:A_N *450:131 1.07797e-05
65 *1786:S *450:131 0.000159964
66 *1794:B *1794:C 0.000341885
67 *1794:B *450:161 7.3151e-05
68 *1794:D *1794:C 2.0514e-05
69 *1804:B *1804:C 9.53428e-06
70 *1804:B *450:39 2.75229e-05
71 *1804:B *450:50 0.000215455
72 *1813:D *1758:C 0.000120655
73 *1813:D *450:131 2.97004e-06
74 *1813:D *450:140 1.44259e-05
75 *1813:D *450:196 4.62226e-05
76 *1832:A_N *1832:B 3.95698e-05
77 *1850:A *1703:A2 5.33786e-06
78 *1850:B *1703:A2 5.05437e-05
79 *1850:D *450:50 3.12176e-05
80 *1850:D *450:61 8.40269e-05
81 *1859:B_N *450:14 0.000270415
82 *1885:D *1885:C 2.75229e-05
83 *2000:CLK *450:226 1.73877e-05
84 *2000:RESET_B *1706:A3 0.000137819
85 *165:21 *450:226 0
86 *232:10 *1776:C 5.13155e-05
87 *261:8 *1749:B 4.82919e-05
88 *261:14 *450:131 5.64057e-05
89 *262:67 *1749:B 2.75229e-05
90 *265:26 *1767:B 2.10011e-05
91 *265:101 *1776:C 6.10014e-05
92 *266:19 *450:131 2.30797e-05
93 *266:19 *450:140 5.16348e-05
94 *266:19 *450:196 0.000309452
95 *268:12 *1885:C 0.000272984
96 *268:12 *450:18 3.09164e-05
97 *268:12 *450:96 9.54469e-05
98 *268:27 *450:14 0.000120655
99 *272:14 *1868:B 0.00011852
100 *272:14 *450:61 5.23362e-05
101 *273:8 *1841:C 0.000100536
102 *275:111 *1841:C 0.000234685
103 *275:111 *450:39 0.00010978
104 *275:111 *450:50 0.000478316
105 *275:111 *450:61 1.46828e-05
106 *276:16 *450:14 2.16917e-05
107 *277:86 *1868:B 0.000110683
108 *277:86 *450:61 5.4003e-05
109 *278:12 *1885:C 0.000122337
110 *278:12 *450:18 0.000242085
111 *278:12 *450:22 9.54399e-05
112 *278:12 *450:96 0.000110683
113 *278:12 *450:107 2.14129e-05
114 *278:22 *1841:C 7.47548e-05
115 *278:94 *1841:C 1.34503e-05
116 *278:94 *450:39 2.39856e-05
117 *407:265 *1841:C 0
118 *408:90 *450:196 9.72231e-05
119 *408:117 *450:18 0.000150464
120 *408:117 *450:22 0.000160658
121 *408:117 *450:96 1.1561e-05
122 *408:117 *450:107 0.000120228
123 *408:117 *450:118 6.6431e-05
124 *408:117 *450:131 7.21296e-06
125 *408:117 *450:161 5.20968e-05
126 *411:43 *1703:A2 2.32597e-05
127 *411:43 *450:61 0.000160641
128 *411:64 *450:14 6.1357e-05
129 *411:70 *1885:C 5.83497e-05
130 *411:126 *1758:C 2.30292e-05
131 *411:244 *1703:A2 3.23663e-05
132 *412:123 *450:161 4.9253e-06
133 *412:125 *450:161 4.19648e-05
134 *412:158 *450:161 9.37731e-05
135 *412:162 *1700:B 2.75229e-05
136 *412:162 *450:161 0.000211586
137 *412:162 *450:170 6.97118e-05
138 *413:36 *450:226 5.02217e-05
139 *413:76 *1706:A3 0.000365159
140 *413:80 *1706:A3 3.09525e-05
141 *416:180 *1767:B 0.000157555
142 *423:29 *1700:B 1.12578e-05
*RES
1 *2116:X *450:8 3.79 
2 *450:8 *450:12 4.95 
3 *450:12 *450:14 5.97 
4 *450:14 *450:16 2 
5 *450:16 *450:18 2.91 
6 *450:18 *450:22 3.89 
7 *450:22 *1841:C 10.37 
8 *450:22 *450:39 1.14 
9 *450:39 *1804:C 1.96 
10 *450:39 *450:50 4.95 
11 *450:50 *1850:C 1.6 
12 *450:50 *450:61 4.445 
13 *450:61 *1703:A2 7.2075 
14 *450:61 *1868:B 4.98 
15 *450:18 *1832:B 4.41 
16 *450:16 *450:96 1.38 
17 *450:96 *1885:C 6.465 
18 *450:96 *450:107 2.655 
19 *450:107 *1749:B 4.05 
20 *450:107 *450:118 1.635 
21 *450:118 *1767:B 5.445 
22 *450:118 *450:131 2.655 
23 *450:131 *1785:C 3.6 
24 *450:131 *450:140 0.615 
25 *450:140 *450:142 2 
26 *450:142 *1794:C 5.515 
27 *450:142 *450:161 10.855 
28 *450:161 *1710:C 1.96 
29 *450:161 *450:170 1.14 
30 *450:170 *1776:C 6.98 
31 *450:170 *1700:B 8.035 
32 *450:140 *450:196 5.675 
33 *450:196 *1758:C 4.81 
34 *450:196 *1813:C 1.6 
35 *450:14 *1859:C 1.6 
36 *450:12 *1823:C 1.6 
37 *450:8 *450:226 8.215 
38 *450:226 *1706:A3 15.575 
39 *450:226 *1711:A4 1.6 
*END

*D_NET *451 0.0272377
*CONN
*I *1833:A0 I *D sky130_fd_sc_hd__mux2_1
*I *1795:A1 I *D sky130_fd_sc_hd__mux2_1
*I *1759:A1 I *D sky130_fd_sc_hd__mux2_1
*I *1777:A1 I *D sky130_fd_sc_hd__mux2_1
*I *1768:A0 I *D sky130_fd_sc_hd__mux2_1
*I *1877:A0 I *D sky130_fd_sc_hd__mux2_1
*I *1814:A1 I *D sky130_fd_sc_hd__mux2_1
*I *1786:A0 I *D sky130_fd_sc_hd__mux2_1
*I *1750:A0 I *D sky130_fd_sc_hd__mux2_1
*I *1860:A1 I *D sky130_fd_sc_hd__mux2_1
*I *1842:A1 I *D sky130_fd_sc_hd__mux2_1
*I *1805:A0 I *D sky130_fd_sc_hd__mux2_1
*I *1869:A0 I *D sky130_fd_sc_hd__mux2_1
*I *1851:A0 I *D sky130_fd_sc_hd__mux2_1
*I *1824:A1 I *D sky130_fd_sc_hd__mux2_1
*I *1886:A1 I *D sky130_fd_sc_hd__mux2_1
*I *2109:X O *D sky130_fd_sc_hd__clkbuf_4
*CAP
1 *1833:A0 0
2 *1795:A1 0.000572737
3 *1759:A1 0.000143463
4 *1777:A1 0
5 *1768:A0 3.39652e-05
6 *1877:A0 4.28024e-05
7 *1814:A1 2.75319e-05
8 *1786:A0 0
9 *1750:A0 0.000134755
10 *1860:A1 0.000158263
11 *1842:A1 4.00572e-05
12 *1805:A0 0
13 *1869:A0 0.000120255
14 *1851:A0 8.88903e-05
15 *1824:A1 0.000565957
16 *1886:A1 0
17 *2109:X 0.00283496
18 *451:177 0.000870909
19 *451:169 0.00103234
20 *451:158 0.000383331
21 *451:143 0.000398579
22 *451:141 0.00102118
23 *451:119 0.000219214
24 *451:115 0.00129199
25 *451:101 0.00103786
26 *451:86 0.000489762
27 *451:75 0.000243741
28 *451:66 0.000242231
29 *451:55 0.000334972
30 *451:44 0.000230201
31 *451:29 0.000741081
32 *451:18 0.00290976
33 *451:18 *456:18 5.53249e-06
34 *451:101 *452:89 0.000183824
35 *451:115 *452:79 0.000137571
36 *451:115 *452:81 0.000402743
37 *451:115 *452:83 7.5416e-05
38 *451:115 *452:89 0.000268723
39 *1643:S *1860:A1 0.000173258
40 *1716:A0 *451:141 0.000137931
41 *1716:A1 *1750:A0 0.000106655
42 *1716:A3 *451:141 0.000120321
43 *1716:S0 *451:141 9.84957e-05
44 *1720:A2 *1824:A1 1.33293e-05
45 *1720:S0 *451:44 1.79536e-05
46 *1721:A2 *1842:A1 8.23457e-05
47 *1721:A3 *451:75 0.000206116
48 *1721:A3 *451:86 0.000136877
49 *1723:B1 *451:86 0.000316799
50 *1723:B1 *451:101 0.000227543
51 *1731:B1 *1768:A0 4.03082e-05
52 *1759:A0 *1759:A1 0.000124895
53 *1777:A0 *1768:A0 7.4027e-05
54 *1786:A1 *451:115 1.60203e-05
55 *1786:A1 *451:119 2.75229e-05
56 *1786:A1 *451:141 2.23485e-05
57 *1786:S *451:115 0.000267846
58 *1804:A *451:115 6.95248e-05
59 *1814:A0 *451:141 7.3579e-05
60 *1814:A0 *451:143 6.64918e-05
61 *1841:D *451:115 0.000139252
62 *1842:S *451:75 5.39961e-05
63 *1842:S *451:86 0.000504193
64 *1842:S *451:101 0.000219699
65 *1851:A1 *1851:A0 0.000120655
66 *1886:A0 *451:29 0.000229652
67 *1886:A0 *451:44 0.000120888
68 *1930:D *1759:A1 7.23602e-05
69 *1930:D *451:158 0.000333496
70 *1930:D *451:169 0.000119214
71 *1938:CLK *451:177 0.000113987
72 *1938:D *451:177 2.36616e-05
73 *1954:D *1750:A0 1.56428e-05
74 *2019:D *1824:A1 1.54049e-05
75 *2044:D *1869:A0 2.49909e-05
76 *2052:D *451:158 3.68769e-05
77 *2060:CLK *1824:A1 4.41506e-05
78 *2082:A *451:86 2.33678e-05
79 *2091:A *1795:A1 0.000105654
80 *2109:A *451:18 2.66935e-05
81 *231:24 *451:177 1.74678e-05
82 *231:30 *451:177 0.000132785
83 *231:45 *1877:A0 1.1392e-05
84 *231:45 *451:177 0.000160635
85 *261:14 *451:115 0.000181376
86 *263:95 *1759:A1 0
87 *263:95 *451:158 0
88 *263:95 *451:169 0
89 *263:110 *1759:A1 0
90 *265:26 *451:115 0.000267846
91 *265:26 *451:141 7.23533e-05
92 *265:101 *1768:A0 0.000141599
93 *269:8 *451:115 0.000262329
94 *270:30 *1814:A1 2.75145e-05
95 *272:35 *451:29 2.66586e-05
96 *273:8 *451:115 0.000131882
97 *274:10 *451:115 0.000585537
98 *274:20 *451:115 0.000163012
99 *275:34 *451:66 0
100 *277:102 *1869:A0 0.000196376
101 *277:102 *451:18 0
102 *277:102 *451:29 1.07797e-05
103 *277:102 *451:44 9.02726e-05
104 *277:102 *451:55 6.36578e-05
105 *277:102 *451:66 1.71013e-05
106 *278:12 *451:115 0.000471287
107 *278:102 *451:18 1.52184e-05
108 *278:102 *451:29 9.77268e-05
109 *278:102 *451:44 0.000146496
110 *278:102 *451:55 6.10941e-05
111 *278:102 *451:66 0.000201711
112 *278:102 *451:75 9.13384e-05
113 *278:110 *451:29 4.82919e-05
114 *351:10 *1824:A1 5.73739e-05
115 *399:10 *1750:A0 9.50342e-06
116 *407:265 *451:141 0.000266618
117 *408:117 *451:115 2.7602e-05
118 *408:146 *451:66 0
119 *408:146 *451:75 0
120 *408:148 *1869:A0 2.8185e-05
121 *411:76 *451:115 7.75325e-05
122 *411:94 *451:115 7.16437e-05
123 *411:111 *451:115 1.01661e-05
124 *416:92 *1750:A0 0.000198939
125 *416:92 *451:119 9.80032e-06
126 *416:96 *1795:A1 6.57653e-06
127 *416:96 *451:141 0
128 *416:96 *451:143 0
129 *416:105 *451:143 0
130 *416:105 *451:158 0
131 *416:120 *1759:A1 0
132 *422:18 *451:143 0
133 *422:18 *451:158 0
134 *422:26 *1795:A1 0.000174577
135 *430:14 *1824:A1 0.000252283
136 *430:16 *1824:A1 1.91597e-05
137 *447:18 *451:141 3.69334e-05
138 *450:22 *451:115 3.76596e-05
139 *450:107 *451:115 0.000107666
140 *450:118 *451:115 7.00066e-05
141 *450:131 *451:115 3.31204e-05
*RES
1 *2109:X *451:18 42.105 
2 *451:18 *1886:A1 1.6 
3 *451:18 *451:29 4.61 
4 *451:29 *1824:A1 12.105 
5 *451:29 *451:44 3.42 
6 *451:44 *1851:A0 4.74 
7 *451:44 *451:55 1.38 
8 *451:55 *1869:A0 6.12 
9 *451:55 *451:66 4.185 
10 *451:66 *1805:A0 3.6 
11 *451:66 *451:75 2.655 
12 *451:75 *1842:A1 4.395 
13 *451:75 *451:86 5.97 
14 *451:86 *1860:A1 6.465 
15 *451:86 *451:101 6.485 
16 *451:101 *451:115 31.54 
17 *451:115 *451:119 1.41 
18 *451:119 *1750:A0 8.81 
19 *451:119 *1786:A0 1.6 
20 *451:115 *451:141 10.6475 
21 *451:141 *451:143 1.7625 
22 *451:143 *1814:A1 4.05 
23 *451:143 *451:158 5.76 
24 *451:158 *1877:A0 4.05 
25 *451:158 *451:169 1.38 
26 *451:169 *451:177 12.14 
27 *451:177 *1768:A0 7.235 
28 *451:177 *1777:A1 1.6 
29 *451:169 *1759:A1 6.465 
30 *451:141 *1795:A1 11.2125 
31 *451:101 *1833:A0 1.6 
*END

*D_NET *452 0.0277437
*CONN
*I *1751:A0 I *D sky130_fd_sc_hd__mux2_1
*I *1815:A1 I *D sky130_fd_sc_hd__mux2_1
*I *1787:A0 I *D sky130_fd_sc_hd__mux2_1
*I *1778:A1 I *D sky130_fd_sc_hd__mux2_1
*I *1769:A0 I *D sky130_fd_sc_hd__mux2_1
*I *1878:A0 I *D sky130_fd_sc_hd__mux2_1
*I *1760:A1 I *D sky130_fd_sc_hd__mux2_1
*I *1796:A1 I *D sky130_fd_sc_hd__mux2_1
*I *1806:A0 I *D sky130_fd_sc_hd__mux2_1
*I *1861:A1 I *D sky130_fd_sc_hd__mux2_1
*I *1843:A1 I *D sky130_fd_sc_hd__mux2_1
*I *1852:A0 I *D sky130_fd_sc_hd__mux2_1
*I *1887:A1 I *D sky130_fd_sc_hd__mux2_1
*I *1834:A0 I *D sky130_fd_sc_hd__mux2_1
*I *1825:A1 I *D sky130_fd_sc_hd__mux2_1
*I *1870:A0 I *D sky130_fd_sc_hd__mux2_1
*I *2110:X O *D sky130_fd_sc_hd__clkbuf_4
*CAP
1 *1751:A0 2.22788e-05
2 *1815:A1 0.000315996
3 *1787:A0 1.65033e-05
4 *1778:A1 9.47172e-05
5 *1769:A0 5.45037e-05
6 *1878:A0 0
7 *1760:A1 0
8 *1796:A1 0.000418491
9 *1806:A0 0.000567575
10 *1861:A1 2.32864e-05
11 *1843:A1 0.00022928
12 *1852:A0 9.99958e-05
13 *1887:A1 0
14 *1834:A0 6.04695e-05
15 *1825:A1 0
16 *1870:A0 0.000213161
17 *2110:X 0.00088355
18 *452:191 0.000332499
19 *452:150 0.000641613
20 *452:134 0.000545302
21 *452:89 0.000393712
22 *452:83 0.000541446
23 *452:81 0.000146009
24 *452:79 0.0007116
25 *452:68 0.00016462
26 *452:46 0.000632505
27 *452:32 0.0017739
28 *452:22 0.00169969
29 *452:20 0.000322685
30 *452:16 0.000537319
31 *452:14 0.000484321
32 *452:10 0.00112838
33 *1796:A1 *1780:A1 0
34 *1622:A *1796:A1 0
35 *1623:A *1796:A1 2.7881e-05
36 *1717:B *452:32 0.000190881
37 *1719:A2 *452:32 0.000354222
38 *1723:B1 *452:32 0.000129138
39 *1724:A0 *1778:A1 0.000347029
40 *1724:A1 *1796:A1 2.97004e-06
41 *1724:A1 *452:150 4.66108e-05
42 *1724:A2 *452:20 2.86623e-05
43 *1724:A2 *452:150 0.00014238
44 *1726:A1 *452:10 0
45 *1726:A3 *452:14 0.000116158
46 *1726:S0 *1778:A1 0.000123225
47 *1726:S0 *452:14 0.000103192
48 *1726:S0 *452:16 0.000269249
49 *1726:S0 *452:20 8.68097e-06
50 *1729:A2 *1806:A0 6.90889e-06
51 *1729:A2 *1843:A1 0.000241483
52 *1729:A3 *1806:A0 0.000617297
53 *1729:S1 *1806:A0 5.83121e-06
54 *1746:S *452:32 7.23602e-05
55 *1751:A1 *1751:A0 4.82863e-05
56 *1762:S *1796:A1 0.000371117
57 *1769:A1 *1769:A0 4.94474e-05
58 *1769:S *1769:A0 4.82863e-05
59 *1769:S *452:32 0.00016322
60 *1778:S *1778:A1 8.40269e-05
61 *1787:S *1787:A0 4.66108e-05
62 *1787:S *1815:A1 3.74161e-05
63 *1806:S *1806:A0 1.31519e-05
64 *1815:S *1815:A1 0.00014502
65 *1833:S *1834:A0 8.23457e-05
66 *1833:S *452:46 0.000100139
67 *1833:S *452:68 0.00021441
68 *1834:A1 *1834:A0 4.99619e-05
69 *1834:S *1834:A0 4.82863e-05
70 *1841:D *452:32 3.86607e-05
71 *1843:S *1861:A1 8.23457e-05
72 *1852:S *1852:A0 5.83121e-06
73 *1861:A0 *1843:A1 4.35348e-05
74 *1861:A0 *1861:A1 4.66108e-05
75 *1870:S *1870:A0 0.000138808
76 *1878:A1 *452:20 4.40556e-05
77 *1878:A1 *452:22 0
78 *1878:A1 *452:134 0.000107369
79 *1887:A0 *1852:A0 0.000266946
80 *1887:A0 *452:89 4.99619e-05
81 *1887:S *1852:A0 2.05056e-05
82 *1887:S *452:89 0.000209615
83 *1895:D *452:10 0
84 *1913:CLK *452:14 0
85 *1931:D *452:150 0
86 *1949:CLK *1796:A1 0
87 *2045:CLK *1870:A0 0
88 *2061:D *452:89 4.82863e-05
89 *2078:A *452:150 0.000115438
90 *2120:A *452:10 6.6925e-05
91 *2123:A *452:10 5.05521e-05
92 *2125:A *452:10 8.31173e-05
93 *2126:A *452:10 0
94 *2126:A *452:14 0
95 *164:18 *1796:A1 0
96 *262:28 *452:16 0.000175915
97 *262:28 *452:32 0.000270641
98 *263:110 *1796:A1 0
99 *263:110 *452:150 4.82919e-05
100 *264:8 *452:32 4.5783e-05
101 *264:102 *452:32 0.000147193
102 *268:27 *452:32 0.000121865
103 *268:38 *452:32 8.42239e-05
104 *269:8 *452:79 0.00012904
105 *269:8 *452:81 0.000121575
106 *269:12 *452:81 0.00028116
107 *269:12 *452:83 6.45236e-05
108 *269:12 *452:89 9.5433e-05
109 *269:61 *1806:A0 5.15704e-06
110 *269:77 *1806:A0 1.33293e-05
111 *270:91 *452:150 0.000405104
112 *272:14 *452:46 8.49205e-05
113 *272:25 *452:46 8.49205e-05
114 *274:20 *452:89 9.81593e-05
115 *275:16 *1870:A0 0.000113972
116 *275:34 *1852:A0 0.00013688
117 *276:16 *452:32 3.98782e-05
118 *278:94 *452:32 0.000356237
119 *278:94 *452:46 5.16348e-05
120 *278:94 *452:89 0.000122337
121 *296:6 *1787:A0 2.49909e-05
122 *296:6 *1815:A1 5.83121e-06
123 *328:10 *452:20 5.00526e-05
124 *352:10 *1870:A0 2.75229e-05
125 *400:10 *452:10 0
126 *407:12 *1769:A0 1.60203e-05
127 *407:51 *452:150 0.000202721
128 *407:234 *452:22 9.95272e-05
129 *407:234 *452:32 0.000266412
130 *408:30 *452:14 2.54692e-05
131 *408:45 *452:14 1.97849e-05
132 *408:45 *452:16 7.06865e-05
133 *408:49 *452:16 0.000627538
134 *408:49 *452:20 4.92971e-05
135 *408:70 *452:20 6.85608e-05
136 *408:80 *452:20 9.9535e-05
137 *408:80 *452:22 0.000250616
138 *408:80 *452:32 0.000139933
139 *408:117 *452:32 0
140 *409:52 *452:20 0
141 *409:63 *452:32 0.00114662
142 *409:148 *1796:A1 0
143 *412:158 *452:32 0.000206824
144 *412:182 *452:32 0.000162332
145 *416:120 *452:150 0.000118197
146 *425:75 *1796:A1 0
147 *431:6 *452:46 0.000304257
148 *431:8 *452:46 0.000102542
149 *431:12 *1834:A0 0.000234669
150 *431:12 *452:68 0.000225285
151 *431:70 *452:46 0.000222134
152 *451:101 *452:89 0.000183824
153 *451:115 *452:79 0.000137571
154 *451:115 *452:81 0.000402743
155 *451:115 *452:83 7.5416e-05
156 *451:115 *452:89 0.000268723
*RES
1 *2110:X *452:10 15.06 
2 *452:10 *452:14 4.635 
3 *452:14 *452:16 8.265 
4 *452:16 *452:20 4.635 
5 *452:20 *452:22 2.91 
6 *452:22 *452:32 35.475 
7 *452:32 *452:46 11.24 
8 *452:46 *1870:A0 10.175 
9 *452:46 *1825:A1 1.6 
10 *452:32 *452:68 4.175 
11 *452:68 *1834:A0 3.775 
12 *452:68 *452:79 3.635 
13 *452:79 *452:81 4.695 
14 *452:81 *452:83 0.87 
15 *452:83 *452:89 9.785 
16 *452:89 *1887:A1 1.6 
17 *452:89 *1852:A0 4.465 
18 *452:83 *1843:A1 6.81 
19 *452:81 *1861:A1 4.395 
20 *452:79 *1806:A0 11.475 
21 *452:22 *452:134 5.555 
22 *452:134 *452:150 12.49 
23 *452:150 *1796:A1 13.355 
24 *452:150 *1760:A1 1.6 
25 *452:134 *1878:A0 1.6 
26 *452:20 *1769:A0 4.74 
27 *452:16 *1778:A1 6.81 
28 *452:14 *452:191 2 
29 *452:191 *1787:A0 2.05 
30 *452:191 *1815:A1 6.22 
31 *452:10 *1751:A0 4.05 
*END

*D_NET *453 0.0212678
*CONN
*I *1853:A0 I *D sky130_fd_sc_hd__mux2_1
*I *1835:A0 I *D sky130_fd_sc_hd__mux2_1
*I *1816:A1 I *D sky130_fd_sc_hd__mux2_1
*I *1779:A1 I *D sky130_fd_sc_hd__mux2_1
*I *1752:A0 I *D sky130_fd_sc_hd__mux2_1
*I *1797:A1 I *D sky130_fd_sc_hd__mux2_1
*I *1788:A0 I *D sky130_fd_sc_hd__mux2_1
*I *1761:A1 I *D sky130_fd_sc_hd__mux2_1
*I *1770:A0 I *D sky130_fd_sc_hd__mux2_1
*I *1879:A0 I *D sky130_fd_sc_hd__mux2_1
*I *1862:A1 I *D sky130_fd_sc_hd__mux2_1
*I *1844:A1 I *D sky130_fd_sc_hd__mux2_1
*I *1807:A0 I *D sky130_fd_sc_hd__mux2_1
*I *1888:A1 I *D sky130_fd_sc_hd__mux2_1
*I *1871:A0 I *D sky130_fd_sc_hd__mux2_1
*I *1826:A1 I *D sky130_fd_sc_hd__mux2_1
*I *2111:X O *D sky130_fd_sc_hd__clkbuf_4
*CAP
1 *1853:A0 0.000139556
2 *1835:A0 0
3 *1816:A1 0
4 *1779:A1 0.000254219
5 *1752:A0 0
6 *1797:A1 0
7 *1788:A0 0.000281671
8 *1761:A1 0
9 *1770:A0 0.000476277
10 *1879:A0 3.38751e-05
11 *1862:A1 0
12 *1844:A1 0.000195306
13 *1807:A0 7.4162e-05
14 *1888:A1 0
15 *1871:A0 0.000323863
16 *1826:A1 0.000321692
17 *2111:X 8.23275e-05
18 *453:164 0.000522712
19 *453:133 0.000580779
20 *453:131 0.000556216
21 *453:125 0.000631882
22 *453:116 0.000211347
23 *453:92 0.000510152
24 *453:90 0.00159099
25 *453:79 0.00176206
26 *453:70 0.000753663
27 *453:57 0.000490269
28 *453:51 0.000256325
29 *453:33 0.000487513
30 *453:29 0.000374925
31 *453:25 0.000678378
32 *453:8 0.000854001
33 *1770:A0 *457:31 0
34 *1826:A1 *455:14 0.000104647
35 *1826:A1 *456:18 0.000998375
36 *453:8 *456:18 0.000122797
37 *453:90 *1866:A1 0
38 *453:90 *457:31 0
39 *453:90 *457:33 0
40 *453:90 *457:39 0
41 *453:90 *457:52 0
42 *453:116 *457:31 0
43 *453:125 *457:31 0
44 *453:164 *457:31 0
45 *1737:S0 *453:70 0.000138985
46 *1737:S1 *453:90 0.000640111
47 *1739:A1 *1779:A1 1.47347e-05
48 *1752:S *453:131 0.000421919
49 *1752:S *453:133 4.40028e-05
50 *1770:A1 *1770:A0 0.000322778
51 *1779:A0 *1779:A1 0.000228401
52 *1779:S *1779:A1 1.85674e-05
53 *1788:S *1788:A0 3.64998e-06
54 *1791:S *1788:A0 0.000111869
55 *1797:A0 *1788:A0 0.000251588
56 *1807:S *1807:A0 4.66108e-05
57 *1807:S *453:70 0.000219299
58 *1816:S *1779:A1 9.53428e-06
59 *1819:S *453:116 2.97004e-06
60 *1819:S *453:125 6.65717e-05
61 *1819:S *453:164 0.000128032
62 *1826:A0 *1826:A1 4.99619e-05
63 *1835:A1 *453:57 0.000433395
64 *1835:A1 *453:70 0.000191196
65 *1835:S *453:51 1.0183e-05
66 *1835:S *453:90 7.26551e-05
67 *1839:S *453:90 0.00045526
68 *1844:A0 *1844:A1 0.000155205
69 *1844:A0 *453:79 0.000129177
70 *1862:A0 *453:79 2.49909e-05
71 *1862:A0 *453:90 2.16917e-05
72 *1866:S *453:90 0
73 *1879:A1 *1770:A0 0.000375351
74 *1879:A1 *1879:A0 4.82863e-05
75 *1879:S *1770:A0 3.9442e-05
76 *1888:A0 *1871:A0 2.75145e-05
77 *1888:A0 *453:33 1.61831e-05
78 *1888:S *453:51 0
79 *1888:S *453:90 0
80 *1956:D *1788:A0 0.000178504
81 *1964:D *1788:A0 4.40643e-05
82 *2021:D *453:25 8.40388e-05
83 *2025:D *453:90 0.000128818
84 *2054:D *453:90 0.000143266
85 *2062:D *453:29 3.86607e-05
86 *2066:CLK *453:90 8.47455e-05
87 *2069:A *1770:A0 0.000348693
88 *2086:A *453:131 0.000283267
89 *2113:A *1826:A1 0.000138175
90 *270:30 *1779:A1 7.67415e-06
91 *270:34 *1779:A1 2.30292e-05
92 *270:34 *453:164 0.000385333
93 *274:55 *453:79 3.27443e-05
94 *274:55 *453:90 1.33293e-05
95 *278:41 *453:90 0
96 *305:8 *1770:A0 4.43871e-06
97 *369:10 *453:70 0.000114492
98 *377:10 *453:51 4.9968e-05
99 *408:431 *1779:A1 0.000126331
100 *408:431 *453:164 0.000329901
101 *416:66 *1770:A0 0
102 *419:14 *453:57 0.000269916
103 *427:10 *453:90 0
104 *427:21 *453:90 0
105 *427:43 *453:90 0
106 *433:8 *453:131 4.82919e-05
107 *433:10 *453:90 0
108 *433:10 *453:116 0
109 *433:14 *453:90 0
*RES
1 *2111:X *453:8 4.74 
2 *453:8 *1826:A1 13.635 
3 *453:8 *453:25 9.02 
4 *453:25 *453:29 3.635 
5 *453:29 *453:33 4.52 
6 *453:33 *1871:A0 6.55 
7 *453:33 *1888:A1 1.6 
8 *453:29 *453:51 4.145 
9 *453:51 *453:57 6.41 
10 *453:57 *1807:A0 4.74 
11 *453:57 *453:70 8.99 
12 *453:70 *1844:A1 4.12 
13 *453:70 *453:79 3.555 
14 *453:79 *1862:A1 1.6 
15 *453:79 *453:90 31.46 
16 *453:90 *453:92 2 
17 *453:92 *1879:A0 2.05 
18 *453:92 *1770:A0 15.275 
19 *453:90 *453:116 1.635 
20 *453:116 *1761:A1 3.6 
21 *453:116 *453:125 2.145 
22 *453:125 *453:131 8.675 
23 *453:131 *453:133 4.245 
24 *453:133 *1788:A0 12.395 
25 *453:133 *1797:A1 1.6 
26 *453:131 *1752:A0 1.6 
27 *453:125 *453:164 9.485 
28 *453:164 *1779:A1 6.91 
29 *453:164 *1816:A1 1.6 
30 *453:51 *1835:A0 1.6 
31 *453:25 *1853:A0 3.085 
*END

*D_NET *454 0.0225222
*CONN
*I *1753:A0 I *D sky130_fd_sc_hd__mux2_1
*I *1789:A0 I *D sky130_fd_sc_hd__mux2_1
*I *1817:A1 I *D sky130_fd_sc_hd__mux2_1
*I *1798:A1 I *D sky130_fd_sc_hd__mux2_1
*I *1762:A1 I *D sky130_fd_sc_hd__mux2_1
*I *1771:A0 I *D sky130_fd_sc_hd__mux2_1
*I *1780:A1 I *D sky130_fd_sc_hd__mux2_1
*I *1880:A0 I *D sky130_fd_sc_hd__mux2_1
*I *1854:A0 I *D sky130_fd_sc_hd__mux2_1
*I *1827:A1 I *D sky130_fd_sc_hd__mux2_1
*I *1872:A0 I *D sky130_fd_sc_hd__mux2_1
*I *1808:A0 I *D sky130_fd_sc_hd__mux2_1
*I *1836:A0 I *D sky130_fd_sc_hd__mux2_1
*I *1863:A1 I *D sky130_fd_sc_hd__mux2_1
*I *1845:A1 I *D sky130_fd_sc_hd__mux2_1
*I *1889:A1 I *D sky130_fd_sc_hd__mux2_1
*I *2112:X O *D sky130_fd_sc_hd__clkbuf_4
*CAP
1 *1753:A0 4.23827e-05
2 *1789:A0 0.000317755
3 *1817:A1 0.00014464
4 *1798:A1 0.000245483
5 *1762:A1 2.44638e-06
6 *1771:A0 0
7 *1780:A1 0.000442333
8 *1880:A0 2.31656e-05
9 *1854:A0 7.56888e-05
10 *1827:A1 0.000617534
11 *1872:A0 0
12 *1808:A0 0
13 *1836:A0 3.89305e-05
14 *1863:A1 0
15 *1845:A1 0.000424101
16 *1889:A1 0
17 *2112:X 0.000567105
18 *454:129 0.000855867
19 *454:89 0.00082471
20 *454:53 0.000583872
21 *454:49 0.000359687
22 *454:41 0.000520426
23 *454:34 0.000446494
24 *454:28 0.00142241
25 *454:26 0.0011547
26 *454:22 0.000629346
27 *454:20 0.000304409
28 *454:16 0.000516729
29 *454:14 0.000304672
30 *454:12 0.000529129
31 *454:10 0.000766881
32 *1845:A1 *456:84 0
33 *454:28 *455:104 0.000829593
34 *454:28 *455:145 0.000294066
35 *454:28 *455:160 0.00020086
36 *454:34 *455:104 0.00062704
37 *454:49 *456:84 9.54399e-05
38 *1639:A3 *454:28 0
39 *1644:B1 *1845:A1 0.000173199
40 *1644:B1 *454:53 0.000166877
41 *1647:S0 *1789:A0 0.000315484
42 *1740:A1 *454:12 0
43 *1740:A2 *1817:A1 7.35813e-05
44 *1740:A2 *454:12 2.24423e-05
45 *1740:A2 *454:14 2.46089e-05
46 *1740:A3 *454:12 0.000114492
47 *1740:S0 *1789:A0 1.19928e-05
48 *1742:A3 *1780:A1 4.66826e-05
49 *1745:S0 *454:53 4.9968e-05
50 *1756:S *1753:A0 8.65961e-05
51 *1762:A0 *1762:A1 1.15399e-05
52 *1762:A0 *454:22 6.08203e-05
53 *1763:S *454:28 0.000678486
54 *1773:A1 *454:28 5.21458e-05
55 *1780:S *1780:A1 1.22505e-05
56 *1796:A1 *1780:A1 0
57 *1808:A1 *454:89 0.000232105
58 *1817:A0 *1817:A1 0.000433972
59 *1836:A1 *1836:A0 1.19928e-05
60 *1836:A1 *454:49 6.0011e-05
61 *1836:A1 *454:53 0
62 *1845:A0 *1845:A1 0.000164874
63 *1845:S *1845:A1 7.35729e-05
64 *1854:A1 *454:34 0
65 *1854:S *454:34 0
66 *1872:A1 *1827:A1 9.93004e-05
67 *1872:A1 *454:89 1.56428e-05
68 *1872:S *454:89 1.3857e-05
69 *1880:S *454:28 0.000196422
70 *1881:A1 *454:28 0.000116165
71 *1889:A0 *454:34 0.000225759
72 *1897:CLK *454:10 0
73 *1897:CLK *454:12 0
74 *1897:CLK *454:14 0
75 *1897:D *454:10 5.20968e-05
76 *1916:D *1780:A1 4.68199e-05
77 *1931:D *1780:A1 0.000460304
78 *1963:CLK *1817:A1 0.000139979
79 *1981:D *1817:A1 8.51595e-05
80 *2006:D *454:53 8.69212e-05
81 *163:73 *1780:A1 0.000244017
82 *163:73 *454:129 0.000608349
83 *164:18 *1780:A1 5.28562e-05
84 *164:34 *1880:A0 4.66108e-05
85 *164:34 *454:20 1.52776e-05
86 *164:34 *454:22 0.000151147
87 *164:34 *454:26 5.21046e-05
88 *176:14 *454:28 0
89 *176:14 *454:34 0
90 *231:51 *454:28 0.00016141
91 *263:110 *1780:A1 3.09233e-05
92 *264:26 *454:28 0
93 *264:68 *1780:A1 3.50599e-05
94 *267:32 *454:28 6.28765e-05
95 *267:73 *1798:A1 0.000122542
96 *267:87 *1798:A1 2.11084e-05
97 *269:77 *454:49 3.47837e-05
98 *269:77 *454:53 9.61344e-05
99 *269:103 *454:34 5.5201e-05
100 *269:103 *454:41 0.000311282
101 *269:103 *454:89 0.000123225
102 *272:84 *454:89 5.49126e-05
103 *274:20 *1845:A1 0.000204026
104 *275:111 *454:34 0
105 *277:18 *454:89 2.8585e-06
106 *277:30 *454:89 1.28946e-05
107 *362:10 *1845:A1 0
108 *362:10 *454:53 0
109 *402:10 *454:10 0
110 *407:51 *1780:A1 0.000114914
111 *407:167 *454:12 6.68849e-05
112 *407:167 *454:14 0.000106648
113 *407:167 *454:16 0.000241397
114 *407:167 *454:20 0.00030403
115 *408:239 *454:53 0.00011852
116 *409:160 *454:16 4.43871e-06
117 *409:160 *454:20 0.000203578
118 *409:160 *454:22 0.000126714
119 *409:160 *454:26 4.19967e-05
120 *409:160 *454:28 0
121 *409:255 *454:16 4.84393e-05
122 *410:57 *454:28 0
123 *416:138 *1780:A1 2.09673e-05
124 *424:71 *454:16 0
125 *431:23 *1827:A1 0
126 *431:34 *1827:A1 0
*RES
1 *2112:X *454:10 11.01 
2 *454:10 *454:12 3.165 
3 *454:12 *454:14 1.38 
4 *454:14 *454:16 2.91 
5 *454:16 *454:20 4.7625 
6 *454:20 *454:22 4.0575 
7 *454:22 *454:26 1.83 
8 *454:26 *454:28 28.155 
9 *454:28 *454:34 10.04 
10 *454:34 *1889:A1 1.6 
11 *454:34 *454:41 2.865 
12 *454:41 *454:49 6.61 
13 *454:49 *454:53 6.95 
14 *454:53 *1845:A1 12.21 
15 *454:53 *1863:A1 3.6 
16 *454:49 *1836:A0 2.05 
17 *454:41 *1808:A0 1.6 
18 *454:41 *454:89 4.365 
19 *454:89 *1872:A0 1.6 
20 *454:89 *1827:A1 14.03 
21 *454:28 *1854:A0 4.395 
22 *454:26 *1880:A0 4.05 
23 *454:22 *454:129 7.625 
24 *454:129 *1780:A1 19.575 
25 *454:129 *1771:A0 1.6 
26 *454:20 *1762:A1 3.8325 
27 *454:16 *1798:A1 6.81 
28 *454:14 *1817:A1 9 
29 *454:12 *1789:A0 7.845 
30 *454:10 *1753:A0 4.395 
*END

*D_NET *455 0.0285271
*CONN
*I *1873:A0 I *D sky130_fd_sc_hd__mux2_1
*I *1890:A1 I *D sky130_fd_sc_hd__mux2_1
*I *1754:A0 I *D sky130_fd_sc_hd__mux2_1
*I *1799:A1 I *D sky130_fd_sc_hd__mux2_1
*I *1790:A0 I *D sky130_fd_sc_hd__mux2_1
*I *1818:A1 I *D sky130_fd_sc_hd__mux2_1
*I *1881:A0 I *D sky130_fd_sc_hd__mux2_1
*I *1781:A1 I *D sky130_fd_sc_hd__mux2_1
*I *1772:A0 I *D sky130_fd_sc_hd__mux2_1
*I *1763:A1 I *D sky130_fd_sc_hd__mux2_1
*I *1837:A0 I *D sky130_fd_sc_hd__mux2_1
*I *1809:A0 I *D sky130_fd_sc_hd__mux2_1
*I *1846:A1 I *D sky130_fd_sc_hd__mux2_1
*I *1864:A1 I *D sky130_fd_sc_hd__mux2_1
*I *1828:A1 I *D sky130_fd_sc_hd__mux2_1
*I *1855:A0 I *D sky130_fd_sc_hd__mux2_1
*I *2113:X O *D sky130_fd_sc_hd__clkbuf_4
*CAP
1 *1873:A0 0.000112851
2 *1890:A1 0
3 *1754:A0 0
4 *1799:A1 0.000286741
5 *1790:A0 0.000161076
6 *1818:A1 0
7 *1881:A0 4.40053e-05
8 *1781:A1 0.000476588
9 *1772:A0 0
10 *1763:A1 0
11 *1837:A0 0
12 *1809:A0 0
13 *1846:A1 6.57904e-05
14 *1864:A1 0.000116539
15 *1828:A1 0.000356172
16 *1855:A0 0
17 *2113:X 0.0006499
18 *455:200 0.000165464
19 *455:175 0.000815606
20 *455:169 0.000634656
21 *455:160 0.00178164
22 *455:145 0.00183293
23 *455:117 0.000907378
24 *455:110 0.000480603
25 *455:104 0.00229106
26 *455:73 0.000402911
27 *455:57 0.000389839
28 *455:55 0.00231563
29 *455:42 0.000462482
30 *455:31 0.000595579
31 *455:20 0.000473245
32 *455:14 0.000986469
33 *1873:A0 *456:18 0.000276351
34 *455:14 *456:18 0.000139387
35 *455:20 *456:18 5.10957e-05
36 *455:160 *1765:A1 0.000237249
37 *455:200 *456:18 0.000153217
38 *1629:S1 *1781:A1 8.53113e-06
39 *1630:B *1781:A1 0.000232105
40 *1633:A3 *455:31 5.83121e-06
41 *1634:A2 *455:55 0.000245192
42 *1634:A2 *455:73 3.57349e-05
43 *1635:A0 *455:55 0
44 *1635:A0 *455:104 0.000161529
45 *1635:S *455:104 0.000106791
46 *1639:A0 *455:104 0.000138857
47 *1639:A1 *455:104 4.11194e-05
48 *1736:S0 *455:20 3.9874e-05
49 *1736:S0 *455:31 8.93112e-05
50 *1736:S0 *455:42 0.00011562
51 *1736:S0 *455:55 7.90356e-06
52 *1736:S1 *455:20 8.41703e-06
53 *1738:S *455:57 2.05056e-05
54 *1738:S *455:73 0.000136553
55 *1738:S *455:104 2.75229e-05
56 *1754:S *455:169 2.16833e-05
57 *1763:A0 *455:145 0.000231557
58 *1763:S *455:104 0.00032669
59 *1763:S *455:145 8.7442e-05
60 *1765:S *455:160 2.30292e-05
61 *1772:A1 *455:117 4.47125e-05
62 *1781:S *1781:A1 0.000319847
63 *1783:S *455:160 0
64 *1790:A1 *1790:A0 0.000297747
65 *1809:S *455:73 1.37328e-05
66 *1818:A0 *455:169 0.000307429
67 *1818:S *455:160 0.00027345
68 *1826:A0 *455:14 6.77501e-05
69 *1826:A1 *455:14 0.000104647
70 *1826:S *455:14 4.85494e-05
71 *1826:S *455:20 0
72 *1837:A1 *455:55 0
73 *1837:A1 *455:57 4.99619e-05
74 *1837:A1 *455:73 0.0001249
75 *1845:A0 *455:104 0
76 *1846:A0 *1846:A1 0.000179027
77 *1846:A0 *455:73 1.08758e-05
78 *1855:A1 *455:31 9.2741e-05
79 *1855:S *455:20 0
80 *1864:A0 *455:55 0.000111505
81 *1882:A1 *455:104 0
82 *1882:S *455:104 0.000183586
83 *1882:S *455:110 5.08304e-06
84 *1882:S *455:145 0
85 *1890:A0 *455:20 0.000177564
86 *1890:S *1873:A0 0.000237301
87 *1898:D *1799:A1 0.000165025
88 *1943:D *455:104 9.30787e-05
89 *1958:D *1790:A0 0
90 *1958:D *455:175 0
91 *1966:D *1799:A1 8.65961e-05
92 *1973:D *455:104 0
93 *1982:D *455:160 3.64998e-06
94 *1982:D *455:169 6.07575e-06
95 *2014:D *455:104 0
96 *2022:D *455:104 0.000141606
97 *2023:D *455:20 0
98 *2040:D *455:55 0.000660128
99 *2056:D *455:145 7.89767e-05
100 *2063:D *455:104 7.63125e-05
101 *2064:D *455:20 0.00027064
102 *2113:A *455:14 0.000278111
103 *176:14 *1781:A1 0
104 *176:14 *455:104 0
105 *231:45 *1781:A1 3.1562e-06
106 *253:12 *455:73 0.000114492
107 *264:20 *1781:A1 0.000124895
108 *264:20 *455:117 0.000122337
109 *265:34 *1781:A1 0.00035893
110 *265:55 *1881:A0 4.80285e-05
111 *266:71 *455:175 3.85797e-05
112 *266:73 *1790:A0 1.01661e-05
113 *273:54 *455:73 5.74791e-05
114 *274:31 *455:104 0
115 *274:53 *1846:A1 0.000161829
116 *274:53 *455:73 1.19928e-05
117 *274:55 *1846:A1 3.00381e-05
118 *299:10 *1790:A0 2.14129e-05
119 *299:10 *455:175 0.000176724
120 *378:8 *455:104 0
121 *379:10 *455:73 2.92496e-05
122 *408:154 *1828:A1 0.000253954
123 *408:384 *1781:A1 0.000183731
124 *409:166 *455:145 0
125 *409:166 *455:160 0
126 *409:174 *455:104 0
127 *409:176 *455:104 0
128 *409:180 *455:104 0
129 *416:45 *455:73 3.38982e-05
130 *426:32 *455:31 0.000139933
131 *426:32 *455:42 0.000209179
132 *426:32 *455:55 0.000160665
133 *454:28 *455:104 0.000829593
134 *454:28 *455:145 0.000294066
135 *454:28 *455:160 0.00020086
136 *454:34 *455:104 0.00062704
*RES
1 *2113:X *455:14 11.515 
2 *455:14 *455:20 11.245 
3 *455:20 *1855:A0 1.6 
4 *455:20 *455:31 5.465 
5 *455:31 *1828:A1 9.915 
6 *455:31 *455:42 2.4 
7 *455:42 *1864:A1 5.085 
8 *455:42 *455:55 11.285 
9 *455:55 *455:57 0.795 
10 *455:57 *455:73 10.21 
11 *455:73 *1846:A1 4.465 
12 *455:73 *1809:A0 1.6 
13 *455:57 *1837:A0 1.6 
14 *455:55 *455:104 43.3625 
15 *455:104 *455:110 2.6825 
16 *455:110 *1763:A1 1.6 
17 *455:110 *455:117 4.935 
18 *455:117 *1772:A0 1.6 
19 *455:117 *1781:A1 15.89 
20 *455:104 *455:145 7.5675 
21 *455:145 *1881:A0 4.395 
22 *455:145 *455:160 26.99 
23 *455:160 *1818:A1 1.6 
24 *455:160 *455:169 4.605 
25 *455:169 *455:175 8.12 
26 *455:175 *1790:A0 7.53 
27 *455:175 *1799:A1 8.19 
28 *455:169 *1754:A0 1.6 
29 *455:14 *455:200 1.485 
30 *455:200 *1890:A1 1.6 
31 *455:200 *1873:A0 6.205 
*END

*D_NET *456 0.0320552
*CONN
*I *1874:A0 I *D sky130_fd_sc_hd__mux2_1
*I *1829:A1 I *D sky130_fd_sc_hd__mux2_1
*I *1856:A0 I *D sky130_fd_sc_hd__mux2_1
*I *1865:A1 I *D sky130_fd_sc_hd__mux2_1
*I *1782:A1 I *D sky130_fd_sc_hd__mux2_1
*I *1882:A0 I *D sky130_fd_sc_hd__mux2_1
*I *1773:A0 I *D sky130_fd_sc_hd__mux2_1
*I *1764:A1 I *D sky130_fd_sc_hd__mux2_1
*I *1800:A1 I *D sky130_fd_sc_hd__mux2_1
*I *1791:A0 I *D sky130_fd_sc_hd__mux2_1
*I *1819:A1 I *D sky130_fd_sc_hd__mux2_1
*I *1755:A0 I *D sky130_fd_sc_hd__mux2_1
*I *1838:A0 I *D sky130_fd_sc_hd__mux2_1
*I *1847:A1 I *D sky130_fd_sc_hd__mux2_1
*I *1810:A0 I *D sky130_fd_sc_hd__mux2_1
*I *1891:A1 I *D sky130_fd_sc_hd__mux2_1
*I *2114:X O *D sky130_fd_sc_hd__clkbuf_4
*CAP
1 *1874:A0 3.05188e-05
2 *1829:A1 0.000251775
3 *1856:A0 0
4 *1865:A1 0.000280132
5 *1782:A1 0.000395103
6 *1882:A0 0
7 *1773:A0 0.000378602
8 *1764:A1 0
9 *1800:A1 0
10 *1791:A0 4.59023e-05
11 *1819:A1 0
12 *1755:A0 0.000579889
13 *1838:A0 0.000330091
14 *1847:A1 5.74818e-05
15 *1810:A0 6.26211e-05
16 *1891:A1 3.76246e-05
17 *2114:X 0.00204561
18 *456:202 0.000697624
19 *456:195 0.000596431
20 *456:134 0.000238068
21 *456:108 0.00186482
22 *456:94 0.00109277
23 *456:92 0.000602255
24 *456:86 0.000608982
25 *456:84 0.00176235
26 *456:63 0.00137086
27 *456:52 0.000216316
28 *456:41 0.00065507
29 *456:35 0.0010499
30 *456:22 0.000575477
31 *456:18 0.00248726
32 *1633:S0 *456:41 0
33 *1637:A1 *1755:A0 4.65643e-05
34 *1637:A3 *456:134 0.000215713
35 *1637:S1 *1755:A0 1.61696e-05
36 *1639:S1 *1782:A1 0
37 *1639:S1 *456:84 0.000395049
38 *1644:B1 *1782:A1 0.000402743
39 *1644:B1 *456:84 0
40 *1744:S1 *456:84 0
41 *1745:A0 *456:84 0.000154488
42 *1755:A1 *1755:A0 0.000300954
43 *1755:S *1755:A0 4.35348e-05
44 *1761:A0 *456:108 0.000463617
45 *1764:A0 *456:108 4.66108e-05
46 *1791:A1 *1791:A0 0.000394699
47 *1791:A1 *456:134 0.000113237
48 *1791:S *1791:A0 0.000394699
49 *1791:S *456:134 4.99619e-05
50 *1800:S *456:134 5.30673e-05
51 *1809:S *1847:A1 8.65905e-05
52 *1819:A0 *456:134 0.000270713
53 *1819:S *456:108 0.000135758
54 *1826:A0 *456:18 2.7441e-05
55 *1826:A1 *456:18 0.000998375
56 *1826:S *456:18 9.2741e-05
57 *1836:A1 *456:84 0.000150548
58 *1838:S *1838:A0 0.000142312
59 *1845:A1 *456:84 0
60 *1847:A0 *456:41 0.00011852
61 *1847:A0 *456:52 0.000206824
62 *1847:S *456:52 2.05641e-05
63 *1856:A1 *456:195 2.11084e-05
64 *1856:A1 *456:202 2.11084e-05
65 *1865:A0 *1865:A1 4.99619e-05
66 *1873:A0 *456:18 0.000276351
67 *1873:A1 *456:18 0.000164874
68 *1873:S *1874:A0 1.4399e-05
69 *1873:S *456:18 0.000223831
70 *1873:S *456:195 9.23898e-05
71 *1873:S *456:202 0.000196942
72 *1874:A1 *1829:A1 0.000110206
73 *1882:S *1773:A0 0.000136114
74 *1882:S *456:86 4.47209e-05
75 *1882:S *456:92 0.000169052
76 *1890:S *456:18 9.27255e-06
77 *1890:S *456:22 0.000187766
78 *1891:A0 *1891:A1 2.11084e-05
79 *1891:S *1891:A1 4.82919e-05
80 *1891:S *456:22 0.00028589
81 *1940:D *456:108 0.000194979
82 *1951:CLK *1782:A1 4.66108e-05
83 *1975:D *456:41 0.0003175
84 *1983:D *1755:A0 0.000340573
85 *1991:D *1829:A1 3.68769e-05
86 *2049:D *1829:A1 0
87 *2064:D *456:18 8.53113e-06
88 *2065:D *456:22 0.00010641
89 *2109:A *456:18 0
90 *2111:A *456:18 3.45679e-05
91 *176:14 *456:84 0.00100795
92 *263:44 *456:108 0.000793974
93 *264:30 *1773:A0 0.000242362
94 *267:32 *456:108 4.73168e-05
95 *267:32 *456:134 0.000375912
96 *269:26 *1865:A1 0.000164534
97 *269:26 *456:41 0.00016569
98 *269:77 *456:84 0
99 *273:52 *1838:A0 0.000164033
100 *274:31 *456:52 2.46007e-05
101 *274:31 *456:63 3.26822e-05
102 *274:31 *456:84 3.2674e-05
103 *274:53 *456:52 4.55949e-05
104 *284:10 *1829:A1 9.54399e-05
105 *313:8 *456:108 0.000197264
106 *324:10 *1773:A0 1.52184e-05
107 *324:10 *456:92 3.86529e-05
108 *340:8 *1829:A1 2.31329e-05
109 *362:10 *456:84 0.000141599
110 *370:10 *456:84 1.1561e-05
111 *408:239 *456:84 0
112 *409:172 *1773:A0 0.000139245
113 *409:174 *1773:A0 0.000237362
114 *409:174 *456:92 0.00047128
115 *426:98 *456:41 0
116 *426:98 *456:52 0
117 *429:46 *456:22 8.08153e-06
118 *429:46 *456:35 0.000197136
119 *451:18 *456:18 5.53249e-06
120 *453:8 *456:18 0.000122797
121 *454:49 *456:84 9.54399e-05
122 *455:14 *456:18 0.000139387
123 *455:20 *456:18 5.10957e-05
124 *455:200 *456:18 0.000153217
*RES
1 *2114:X *456:18 37.325 
2 *456:18 *456:22 8.735 
3 *456:22 *1891:A1 4.395 
4 *456:22 *456:35 7.715 
5 *456:35 *456:41 10.595 
6 *456:41 *1810:A0 4.395 
7 *456:41 *456:52 2.91 
8 *456:52 *1847:A1 4.395 
9 *456:52 *456:63 1.125 
10 *456:63 *1838:A0 9.57 
11 *456:63 *456:84 26.165 
12 *456:84 *456:86 5.625 
13 *456:86 *456:92 8.6 
14 *456:92 *456:94 2 
15 *456:94 *456:108 19.44 
16 *456:108 *1755:A0 17.195 
17 *456:108 *1819:A1 1.6 
18 *456:108 *456:134 7.71 
19 *456:134 *1791:A0 5.155 
20 *456:134 *1800:A1 1.6 
21 *456:94 *1764:A1 1.6 
22 *456:92 *1773:A0 11.94 
23 *456:86 *1882:A0 1.6 
24 *456:84 *1782:A1 12.575 
25 *456:35 *1865:A1 5.965 
26 *456:18 *456:195 2.52 
27 *456:195 *1856:A0 1.6 
28 *456:195 *456:202 5.625 
29 *456:202 *1829:A1 10.835 
30 *456:202 *1874:A0 2.05 
*END

*D_NET *457 0.023136
*CONN
*I *1820:A1 I *D sky130_fd_sc_hd__mux2_1
*I *1756:A0 I *D sky130_fd_sc_hd__mux2_1
*I *1801:A1 I *D sky130_fd_sc_hd__mux2_1
*I *1792:A0 I *D sky130_fd_sc_hd__mux2_1
*I *1783:A1 I *D sky130_fd_sc_hd__mux2_1
*I *1774:A0 I *D sky130_fd_sc_hd__mux2_1
*I *1765:A1 I *D sky130_fd_sc_hd__mux2_1
*I *1875:A0 I *D sky130_fd_sc_hd__mux2_1
*I *1839:A0 I *D sky130_fd_sc_hd__mux2_1
*I *1811:A0 I *D sky130_fd_sc_hd__mux2_1
*I *1848:A1 I *D sky130_fd_sc_hd__mux2_1
*I *1892:A1 I *D sky130_fd_sc_hd__mux2_1
*I *1830:A1 I *D sky130_fd_sc_hd__mux2_1
*I *1866:A1 I *D sky130_fd_sc_hd__mux2_1
*I *1857:A0 I *D sky130_fd_sc_hd__mux2_1
*I *1883:A0 I *D sky130_fd_sc_hd__mux2_1
*I *2115:X O *D sky130_fd_sc_hd__clkbuf_4
*CAP
1 *1820:A1 0.000333116
2 *1756:A0 0.000149467
3 *1801:A1 0
4 *1792:A0 0.000148182
5 *1783:A1 0.000119358
6 *1774:A0 0
7 *1765:A1 8.91535e-05
8 *1875:A0 0.000240173
9 *1839:A0 0
10 *1811:A0 0
11 *1848:A1 0.000187438
12 *1892:A1 3.76246e-05
13 *1830:A1 0.000347964
14 *1866:A1 0.000404372
15 *1857:A0 0
16 *1883:A0 0
17 *2115:X 0.00141856
18 *457:172 0.001115
19 *457:138 0.000502492
20 *457:95 0.000672724
21 *457:85 0.000833315
22 *457:52 0.000851618
23 *457:50 0.000263276
24 *457:39 0.000318776
25 *457:33 0.000624867
26 *457:31 0.00177339
27 *457:29 0.00181726
28 *457:25 0.000718023
29 *457:18 0.000308455
30 *457:12 0.00052745
31 *457:10 0.000184213
32 *457:8 0.0021088
33 *1647:A1 *1756:A0 0
34 *1650:A2 *1848:A1 1.17409e-05
35 *1650:A2 *457:95 1.33293e-05
36 *1650:A3 *457:95 2.45351e-05
37 *1650:S0 *457:95 0
38 *1651:A1 *457:39 8.52003e-06
39 *1651:A1 *457:50 5.062e-06
40 *1756:A1 *1756:A0 0
41 *1765:S *1765:A1 4.82919e-05
42 *1766:A0 *457:31 0.000142719
43 *1770:A0 *457:31 0
44 *1774:S *1783:A1 4.85494e-05
45 *1783:A0 *1783:A1 0.000371882
46 *1783:A0 *457:138 4.66108e-05
47 *1811:A1 *457:95 4.65515e-05
48 *1819:S *457:31 0
49 *1820:S *1820:A1 5.4155e-06
50 *1821:S *457:18 0.000162332
51 *1830:A0 *1830:A1 0.000459366
52 *1839:A1 *457:85 3.75126e-05
53 *1839:A1 *457:95 0.000377226
54 *1839:S *457:85 0.000122797
55 *1848:A0 *1848:A1 0.000100908
56 *1857:A1 *457:50 1.4389e-05
57 *1857:S *457:50 3.26735e-05
58 *1858:S *457:50 2.24423e-05
59 *1858:S *457:52 8.08153e-06
60 *1866:A0 *1866:A1 8.70195e-05
61 *1866:S *1866:A1 0.000156754
62 *1875:A1 *1875:A0 0.000344459
63 *1875:S *1875:A0 0.0001249
64 *1879:S *457:31 0
65 *1883:A1 *457:29 0.00018305
66 *1883:S *457:18 0
67 *1883:S *457:29 9.38181e-05
68 *1883:S *457:31 0
69 *1883:S *457:138 4.82863e-05
70 *1888:S *1866:A1 0.000163204
71 *1892:A0 *1892:A1 2.11084e-05
72 *1892:S *1892:A1 4.82919e-05
73 *1892:S *457:52 0.000119862
74 *1900:D *1756:A0 0
75 *1900:D *457:172 5.50579e-05
76 *1936:D *457:29 9.54399e-05
77 *1937:D *457:31 0.00018116
78 *1944:CLK *457:12 0
79 *1944:CLK *457:18 0
80 *1944:D *457:138 0.000508231
81 *1960:D *457:10 4.94326e-05
82 *1960:D *457:12 9.16315e-05
83 *1960:D *457:172 0.000103966
84 *1968:CLK *457:8 8.14709e-05
85 *1968:CLK *457:10 0
86 *1968:CLK *457:12 0
87 *1968:CLK *457:172 0
88 *1968:D *457:8 1.43717e-05
89 *1980:D *457:31 0.000187766
90 *2025:D *457:39 8.53113e-06
91 *2025:D *457:50 0
92 *2025:D *457:52 0
93 *2054:D *457:31 5.51158e-05
94 *2059:D *457:31 0.000141606
95 *2066:D *1875:A0 4.66108e-05
96 *2066:D *457:33 0.00013994
97 *2066:D *457:39 0.000252977
98 *2066:D *457:50 2.66935e-05
99 *2096:A *1866:A1 0.000120655
100 *164:34 *1783:A1 0.000108031
101 *262:81 *1875:A0 0.000242187
102 *269:103 *1830:A1 5.44786e-05
103 *270:47 *457:31 0
104 *278:41 *1866:A1 0.00013994
105 *278:41 *457:52 6.55429e-05
106 *301:10 *1756:A0 0
107 *317:8 *1783:A1 4.66108e-05
108 *317:8 *457:138 0.000201503
109 *373:10 *457:95 3.09233e-05
110 *381:10 *457:95 0
111 *389:10 *457:95 1.82476e-05
112 *436:36 *457:18 6.55328e-05
113 *436:48 *457:18 7.25432e-05
114 *436:48 *457:29 0
115 *436:48 *457:31 0
116 *436:58 *457:31 9.57632e-05
117 *453:90 *1866:A1 0
118 *453:90 *457:31 0
119 *453:90 *457:33 0
120 *453:90 *457:39 0
121 *453:90 *457:52 0
122 *453:116 *457:31 0
123 *453:125 *457:31 0
124 *453:164 *457:31 0
125 *455:160 *1765:A1 0.000237249
*RES
1 *2115:X *457:8 19.23 
2 *457:8 *457:10 1.125 
3 *457:10 *457:12 2.655 
4 *457:12 *457:18 7.235 
5 *457:18 *1883:A0 1.6 
6 *457:18 *457:25 0.795 
7 *457:25 *457:29 7.97 
8 *457:29 *457:31 26.625 
9 *457:31 *457:33 1.89 
10 *457:33 *457:39 5.705 
11 *457:39 *1857:A0 1.6 
12 *457:39 *457:50 4.43 
13 *457:50 *457:52 2.4 
14 *457:52 *1866:A1 11.895 
15 *457:52 *1830:A1 9.57 
16 *457:50 *1892:A1 4.395 
17 *457:33 *457:85 7.625 
18 *457:85 *457:95 12.73 
19 *457:95 *1848:A1 4.93 
20 *457:95 *1811:A0 1.6 
21 *457:85 *1839:A0 1.6 
22 *457:31 *1875:A0 10.26 
23 *457:29 *1765:A1 5.775 
24 *457:25 *457:138 8.4 
25 *457:138 *1774:A0 1.6 
26 *457:138 *1783:A1 5.5 
27 *457:12 *1792:A0 5.775 
28 *457:10 *1801:A1 3.6 
29 *457:8 *457:172 10.115 
30 *457:172 *1756:A0 7.745 
31 *457:172 *1820:A1 6.22 
*END

*D_NET *458 0.0105626
*CONN
*I *1697:A I *D sky130_fd_sc_hd__xnor2_1
*I *1698:A I *D sky130_fd_sc_hd__xnor2_1
*I *1679:B2 I *D sky130_fd_sc_hd__a221o_1
*I *1678:B2 I *D sky130_fd_sc_hd__o221ai_2
*I *1929:D I *D sky130_fd_sc_hd__dfrtp_1
*I *2031:Q O *D sky130_fd_sc_hd__dfrtp_4
*CAP
1 *1697:A 0.000502663
2 *1698:A 0.000254546
3 *1679:B2 9.10211e-06
4 *1678:B2 0
5 *1929:D 0.00145137
6 *2031:Q 0.00024122
7 *458:65 0.00106415
8 *458:18 0.00151725
9 *458:12 0.00069084
10 *458:10 0.00116403
11 *1697:A *2031:D 0.000314903
12 *1698:A *2030:D 0.000168213
13 *1698:A *2035:D 0.000142661
14 *1929:D *1674:B 4.82863e-05
15 *1929:D *1903:D 0.000369932
16 *1929:D *1904:D 9.54399e-05
17 *1929:D *1909:D 0.000135923
18 *1929:D *1923:D 0.000118513
19 *1929:D *1924:D 1.32843e-05
20 *1929:D *1928:D 0
21 *1929:D *462:29 0.000158965
22 *458:12 *1628:A 0
23 *458:12 *1906:D 4.94326e-05
24 *458:12 *462:12 0
25 *458:18 *483:10 2.34345e-05
26 *1677:C1 *1929:D 0.000159668
27 *1678:A2 *1929:D 0
28 *1678:B1 *458:12 1.22762e-05
29 *1678:B1 *458:18 6.23375e-05
30 *1678:C1 *1929:D 0.000412042
31 *1679:C1 *458:18 0.00011852
32 *1904:RESET_B *1929:D 6.28765e-05
33 *1908:RESET_B *1929:D 0.000146968
34 *1924:CLK *1929:D 4.41506e-05
35 *1999:RESET_B *1929:D 0.000112855
36 *167:6 *1929:D 7.73773e-05
37 *167:6 *458:18 8.65961e-05
38 *418:110 *1697:A 0
39 *438:166 *1929:D 0
40 *446:12 *1929:D 0.000109221
41 *446:14 *1929:D 0.000143501
42 *446:49 *1929:D 0.00015706
43 *446:59 *1929:D 0.00020613
44 *446:135 *1697:A 0.000116853
*RES
1 *2031:Q *458:10 7.065 
2 *458:10 *458:12 10.56 
3 *458:12 *458:18 4.685 
4 *458:18 *1929:D 36.395 
5 *458:18 *1678:B2 1.6 
6 *458:12 *1679:B2 3.70875 
7 *458:10 *458:65 6.59 
8 *458:65 *1698:A 6.88 
9 *458:65 *1697:A 15.41 
*END

*D_NET *459 0.00658061
*CONN
*I *1625:A I *D sky130_fd_sc_hd__inv_2
*I *1675:B I *D sky130_fd_sc_hd__nand2b_1
*I *1925:D I *D sky130_fd_sc_hd__dfrtp_1
*I *2032:Q O *D sky130_fd_sc_hd__dfrtp_1
*CAP
1 *1625:A 4.93187e-05
2 *1675:B 1.84894e-05
3 *1925:D 0.00190286
4 *2032:Q 8.4455e-05
5 *459:29 0.000564362
6 *459:10 0.00248387
7 *1625:A *1675:A_N 4.36254e-05
8 *1675:B *1675:A_N 9.10017e-06
9 *1925:D *1676:A 0
10 *1925:D *1902:D 0
11 *1925:D *1926:D 0
12 *1925:D *1994:D 0
13 *1925:D *2001:D 0
14 *1925:D *460:10 0
15 *459:10 *1902:D 0
16 *459:10 *1905:D 0.000122319
17 *1678:C1 *1625:A 4.66108e-05
18 *1678:C1 *459:29 0.000120655
19 *1706:A2 *1925:D 0
20 *1706:B1 *1925:D 9.49289e-05
21 *1929:RESET_B *1925:D 3.18137e-05
22 *1987:D *1925:D 0
23 *1994:RESET_B *1925:D 0.000130072
24 *1995:RESET_B *1925:D 7.63204e-05
25 *1999:RESET_B *1925:D 0
26 *2068:A *1925:D 0.000414298
27 *2068:A *459:10 5.98004e-06
28 *411:14 *1925:D 0
29 *412:10 *1925:D 0
30 *413:58 *1925:D 0
31 *413:64 *1925:D 0.000130547
32 *432:41 *1925:D 7.35729e-05
33 *438:117 *1925:D 0.000147066
34 *446:10 *1625:A 9.80032e-06
35 *446:10 *1675:B 7.25921e-06
36 *446:10 *459:29 1.32835e-05
*RES
1 *2032:Q *459:10 5.175 
2 *459:10 *1925:D 40.845 
3 *459:10 *459:29 9.005 
4 *459:29 *1675:B 2.06875 
5 *459:29 *1625:A 2.755 
*END

*D_NET *460 0.00489791
*CONN
*I *1676:B I *D sky130_fd_sc_hd__xor2_1
*I *1926:D I *D sky130_fd_sc_hd__dfrtp_1
*I *2033:Q O *D sky130_fd_sc_hd__dfrtp_1
*CAP
1 *1676:B 0
2 *1926:D 0.00155278
3 *2033:Q 0.000513489
4 *460:10 0.00206627
5 *1926:D *1676:A 0.000298442
6 *1926:D *1927:D 0
7 *460:10 *1902:D 0.000335375
8 *460:10 *1911:D 0
9 *460:10 *1927:D 0
10 *1902:CLK *460:10 3.00381e-05
11 *1924:CLK *1926:D 0
12 *1925:D *1926:D 0
13 *1925:D *460:10 0
14 *1926:CLK *1926:D 2.75145e-05
15 *1927:CLK *1926:D 0
16 *1929:RESET_B *1926:D 0
17 *2033:RESET_B *460:10 7.40016e-05
18 *413:58 *1926:D 0
19 *423:93 *1926:D 0
20 *423:95 *1926:D 0
21 *432:56 *1926:D 0
22 *432:67 *1926:D 0
23 *438:117 *1926:D 0
*RES
1 *2033:Q *460:10 13.275 
2 *460:10 *1926:D 29.145 
3 *460:10 *1676:B 3.6 
*END

*D_NET *461 0.00617681
*CONN
*I *1626:A I *D sky130_fd_sc_hd__inv_2
*I *1927:D I *D sky130_fd_sc_hd__dfrtp_1
*I *2034:Q O *D sky130_fd_sc_hd__dfrtp_1
*CAP
1 *1626:A 0
2 *1927:D 0.00100045
3 *2034:Q 0.00040013
4 *461:14 0.00140058
5 *1927:D *1669:A 0.000335163
6 *1927:D *1911:D 0.00143614
7 *461:14 *1911:D 0.000311014
8 *1670:B1 *1927:D 0
9 *1911:RESET_B *461:14 3.31204e-05
10 *1924:CLK *1927:D 0.000328406
11 *1926:D *1927:D 0
12 *1927:CLK *1927:D 2.75145e-05
13 *2034:RESET_B *461:14 0.000122331
14 *167:6 *461:14 4.82863e-05
15 *418:135 *1927:D 1.56428e-05
16 *418:135 *461:14 2.8185e-05
17 *423:93 *1927:D 0.000208477
18 *423:95 *1927:D 0.000206123
19 *438:117 *1927:D 4.82863e-05
20 *446:59 *461:14 8.97564e-05
21 *446:183 *461:14 0.000137195
22 *460:10 *1927:D 0
*RES
1 *2034:Q *461:14 14.375 
2 *461:14 *1927:D 30.83 
3 *461:14 *1626:A 1.6 
*END

*D_NET *462 0.00442451
*CONN
*I *1627:A I *D sky130_fd_sc_hd__inv_2
*I *1928:D I *D sky130_fd_sc_hd__dfrtp_1
*I *1674:B I *D sky130_fd_sc_hd__and2b_1
*I *2035:Q O *D sky130_fd_sc_hd__dfrtp_1
*CAP
1 *1627:A 1.17533e-05
2 *1928:D 0.000835966
3 *1674:B 2.39831e-05
4 *2035:Q 0.000645379
5 *462:29 0.00109663
6 *462:12 0.000918272
7 *1928:D *1675:A_N 4.43871e-06
8 *1928:D *1903:D 0
9 *1928:D *1923:D 2.68622e-05
10 *1928:D *485:8 0
11 *462:12 *1906:D 5.13155e-05
12 *462:12 *483:10 7.98967e-05
13 *462:29 *1675:A_N 0.000118258
14 *462:29 *1677:A1 4.71387e-05
15 *462:29 *483:10 6.4062e-05
16 *1677:A2 *1627:A 4.82863e-05
17 *1677:A2 *462:29 0.000128157
18 *1677:C1 *1928:D 0
19 *1678:C1 *462:12 2.78732e-05
20 *1679:C1 *462:12 1.94723e-05
21 *1681:B1 *462:29 0
22 *1904:RESET_B *1928:D 4.19967e-05
23 *1911:RESET_B *462:12 0
24 *1929:D *1674:B 4.82863e-05
25 *1929:D *1928:D 0
26 *1929:D *462:29 0.000158965
27 *214:14 *462:29 0
28 *446:10 *1627:A 2.75145e-05
29 *446:59 *462:12 0
30 *446:131 *462:12 0
31 *446:183 *462:12 0
32 *458:12 *462:12 0
*RES
1 *2035:Q *462:12 16.445 
2 *462:12 *1674:B 2.05 
3 *462:12 *462:29 7.715 
4 *462:29 *1928:D 15.27 
5 *462:29 *1627:A 4.05 
*END

*D_NET *463 0.00116938
*CONN
*I *1664:B I *D sky130_fd_sc_hd__xor2_1
*I *1920:Q O *D sky130_fd_sc_hd__dfrtp_1
*CAP
1 *1664:B 0.000535385
2 *1920:Q 0.000535385
3 *1920:RESET_B *1664:B 1.23607e-05
4 *1925:RESET_B *1664:B 6.15143e-05
5 *201:20 *1664:B 0
6 *432:45 *1664:B 0
7 *438:12 *1664:B 2.47313e-05
*RES
1 *1920:Q *1664:B 13.86 
*END

*D_NET *464 0.000286549
*CONN
*I *1663:A I *D sky130_fd_sc_hd__xnor2_1
*I *1921:Q O *D sky130_fd_sc_hd__dfrtp_1
*CAP
1 *1663:A 3.08081e-05
2 *1921:Q 3.08081e-05
3 *209:10 *1663:A 0.000120186
4 *438:55 *1663:A 9.54399e-05
5 *438:87 *1663:A 9.3062e-06
*RES
1 *1921:Q *1663:A 8.58 
*END

*D_NET *465 0.000364562
*CONN
*I *1662:A I *D sky130_fd_sc_hd__xnor2_1
*I *1922:Q O *D sky130_fd_sc_hd__dfrtp_1
*CAP
1 *1662:A 0.000155587
2 *1922:Q 0.000155587
3 *1672:C1 *1662:A 5.33874e-05
*RES
1 *1922:Q *1662:A 9.63 
*END

*D_NET *466 0.000926215
*CONN
*I *1661:B I *D sky130_fd_sc_hd__xor2_1
*I *1923:Q O *D sky130_fd_sc_hd__dfrtp_1
*CAP
1 *1661:B 0.000404681
2 *1923:Q 0.000404681
3 *1661:B *467:12 0.000116853
4 rdata[5] *1661:B 0
5 *2119:A *1661:B 0
6 *438:155 *1661:B 0
7 *438:166 *1661:B 0
*RES
1 *1923:Q *1661:B 13.71 
*END

*D_NET *467 0.000725084
*CONN
*I *1661:A I *D sky130_fd_sc_hd__xor2_1
*I *1669:B I *D sky130_fd_sc_hd__xnor2_1
*I *1924:Q O *D sky130_fd_sc_hd__dfrtp_1
*CAP
1 *1661:A 0
2 *1669:B 0.000124706
3 *1924:Q 0.000108748
4 *467:12 0.000233454
5 *1661:B *467:12 0.000116853
6 *438:155 *467:12 0
7 *447:18 *1669:B 0.000141323
*RES
1 *1924:Q *467:12 7.43 
2 *467:12 *1669:B 4.135 
3 *467:12 *1661:A 1.6 
*END

*D_NET *468 0.000290981
*CONN
*I *1920:D I *D sky130_fd_sc_hd__dfrtp_1
*I *1925:Q O *D sky130_fd_sc_hd__dfrtp_1
*CAP
1 *1920:D 9.80654e-05
2 *1925:Q 9.80654e-05
3 *1925:RESET_B *1920:D 4.65641e-05
4 *432:41 *1920:D 4.82863e-05
*RES
1 *1925:Q *1920:D 5.15 
*END

*D_NET *469 0.000825315
*CONN
*I *1921:D I *D sky130_fd_sc_hd__dfrtp_1
*I *1926:Q O *D sky130_fd_sc_hd__dfrtp_1
*CAP
1 *1921:D 0.000310349
2 *1926:Q 0.000310349
3 *1926:RESET_B *1921:D 0.000120741
4 *1996:RESET_B *1921:D 2.99035e-05
5 *432:56 *1921:D 5.39718e-05
*RES
1 *1926:Q *1921:D 11.535 
*END

*D_NET *470 0.000943015
*CONN
*I *1922:D I *D sky130_fd_sc_hd__dfrtp_1
*I *1927:Q O *D sky130_fd_sc_hd__dfrtp_1
*CAP
1 *1922:D 0.000339756
2 *1927:Q 0.000339756
3 *1672:A1 *1922:D 0
4 *1927:CLK *1922:D 2.69174e-05
5 *1927:RESET_B *1922:D 2.40101e-05
6 *199:12 *1922:D 2.49909e-05
7 *438:103 *1922:D 4.21973e-05
8 *438:117 *1922:D 0.000145387
*RES
1 *1927:Q *1922:D 13.785 
*END

*D_NET *471 0.00110868
*CONN
*I *1923:D I *D sky130_fd_sc_hd__dfrtp_1
*I *1928:Q O *D sky130_fd_sc_hd__dfrtp_1
*CAP
1 *1923:D 0.00042156
2 *1928:Q 0.00042156
3 *1908:RESET_B *1923:D 0.000120186
4 *1928:D *1923:D 2.68622e-05
5 *1929:D *1923:D 0.000118513
*RES
1 *1928:Q *1923:D 12.825 
*END

*D_NET *472 0.000340262
*CONN
*I *1924:D I *D sky130_fd_sc_hd__dfrtp_1
*I *1929:Q O *D sky130_fd_sc_hd__dfrtp_1
*CAP
1 *1924:D 0.000155667
2 *1929:Q 0.000155667
3 *1924:CLK *1924:D 1.56428e-05
4 *1929:D *1924:D 1.32843e-05
*RES
1 *1929:Q *1924:D 5.045 
*END

*D_NET *473 0.000845169
*CONN
*I *1907:D I *D sky130_fd_sc_hd__dfrtp_1
*I *1999:Q O *D sky130_fd_sc_hd__dfrtp_1
*CAP
1 *1907:D 0.000234507
2 *1999:Q 0.000234507
3 *1907:D *1910:D 0.000277029
4 *423:78 *1907:D 9.91257e-05
*RES
1 *1999:Q *1907:D 11.85 
*END

*D_NET *474 0.00192666
*CONN
*I *1908:D I *D sky130_fd_sc_hd__dfrtp_1
*I *2000:Q O *D sky130_fd_sc_hd__dfrtp_1
*CAP
1 *1908:D 0.000738453
2 *2000:Q 0.000738453
3 *1908:D *1910:D 6.36273e-05
4 *1908:D *1997:D 0
5 *1908:D *1999:D 0.000270653
6 *1908:D *2001:D 0
7 *1706:A3 *1908:D 0.000115474
8 *1997:CLK *1908:D 0
9 *1999:RESET_B *1908:D 0
10 *423:33 *1908:D 0
*RES
1 *2000:Q *1908:D 19.005 
*END

*D_NET *475 0.00296287
*CONN
*I *1909:D I *D sky130_fd_sc_hd__dfrtp_1
*I *2001:Q O *D sky130_fd_sc_hd__dfrtp_1
*CAP
1 *1909:D 0.000657948
2 *2001:Q 0.000657948
3 *1909:D *1669:A 0.000185112
4 *1909:D *1911:D 8.09021e-06
5 *1908:RESET_B *1909:D 0.000365327
6 *1912:CLK *1909:D 0.000196998
7 *1929:D *1909:D 0.000135923
8 *418:139 *1909:D 0.000164686
9 *418:141 *1909:D 0.00034058
10 *438:166 *1909:D 0
11 *446:14 *1909:D 0.000200648
12 *447:18 *1909:D 4.96151e-05
*RES
1 *2001:Q *1909:D 22.335 
*END

*D_NET *476 0.00256252
*CONN
*I *1910:D I *D sky130_fd_sc_hd__dfrtp_1
*I *2002:Q O *D sky130_fd_sc_hd__dfrtp_1
*CAP
1 *1910:D 0.000822734
2 *2002:Q 0.000822734
3 *1910:D *1999:D 0.000285169
4 *1712:A *1910:D 5.83373e-05
5 *1907:CLK *1910:D 0
6 *1907:D *1910:D 0.000277029
7 *1908:D *1910:D 6.36273e-05
8 *1912:D *1910:D 9.5433e-05
9 *1998:RESET_B *1910:D 0
10 *1999:RESET_B *1910:D 0
11 *2002:RESET_B *1910:D 8.8266e-05
12 *418:22 *1910:D 0
13 *423:33 *1910:D 4.91927e-05
*RES
1 *2002:Q *1910:D 24.105 
*END

*D_NET *477 0.00986203
*CONN
*I *1911:D I *D sky130_fd_sc_hd__dfrtp_1
*I *1669:A I *D sky130_fd_sc_hd__xnor2_1
*I *1714:A I *D sky130_fd_sc_hd__xnor2_1
*I *1715:A I *D sky130_fd_sc_hd__xor2_1
*I *1998:Q O *D sky130_fd_sc_hd__dfrtp_2
*CAP
1 *1911:D 0.000655952
2 *1669:A 0.000270762
3 *1714:A 0.000253444
4 *1715:A 8.06041e-05
5 *1998:Q 0
6 *477:32 0.00139322
7 *477:10 0.000771462
8 *477:4 0.00090392
9 *1911:D *1674:A_N 1.94723e-05
10 *1911:D *1902:D 0
11 *477:10 *2002:D 6.01336e-05
12 *1712:A *477:10 0.00025143
13 *1719:A1 *1714:A 0.000362979
14 *1909:D *1669:A 0.000185112
15 *1909:D *1911:D 8.09021e-06
16 *1912:CLK *1911:D 0.000104585
17 *1912:D *477:10 4.66742e-05
18 *1912:D *477:32 0.000627466
19 *1927:D *1669:A 0.000335163
20 *1927:D *1911:D 0.00143614
21 *231:12 *1714:A 0.000697383
22 *265:101 *1714:A 0
23 *418:135 *1911:D 0.000256406
24 *418:137 *1911:D 8.7974e-05
25 *418:139 *1911:D 0.000113745
26 *418:141 *1911:D 0.000190158
27 *446:59 *1911:D 0
28 *446:121 *1911:D 0.000173973
29 *446:131 *1911:D 4.43871e-06
30 *447:18 *1669:A 0.00026033
31 *460:10 *1911:D 0
32 *461:14 *1911:D 0.000311014
*RES
1 *1998:Q *477:4 1.6 
2 *477:4 *477:10 8.16 
3 *477:10 *1715:A 2.74 
4 *477:10 *1714:A 13.865 
5 *477:4 *477:32 11.765 
6 *477:32 *1669:A 11.43 
7 *477:32 *1911:D 26.34 
*END

*D_NET *478 0.00142402
*CONN
*I *1902:D I *D sky130_fd_sc_hd__dfrtp_1
*I *1907:Q O *D sky130_fd_sc_hd__dfrtp_1
*CAP
1 *1902:D 0.000544323
2 *1907:Q 0.000544323
3 *1902:D *1905:D 0
4 *1911:D *1902:D 0
5 *1925:D *1902:D 0
6 *2068:A *1902:D 0
7 *418:12 *1902:D 0
8 *418:65 *1902:D 0
9 *459:10 *1902:D 0
10 *460:10 *1902:D 0.000335375
*RES
1 *1907:Q *1902:D 16.62 
*END

*D_NET *479 0.00258393
*CONN
*I *1903:D I *D sky130_fd_sc_hd__dfrtp_1
*I *1908:Q O *D sky130_fd_sc_hd__dfrtp_1
*CAP
1 *1903:D 0.000765644
2 *1908:Q 0.000765644
3 *1903:CLK *1903:D 7.35813e-05
4 *1908:RESET_B *1903:D 0.000609125
5 *1928:D *1903:D 0
6 *1928:RESET_B *1903:D 0
7 *1929:D *1903:D 0.000369932
8 *438:166 *1903:D 0
*RES
1 *1908:Q *1903:D 19.44 
*END

*D_NET *480 0.00123707
*CONN
*I *1904:D I *D sky130_fd_sc_hd__dfrtp_1
*I *1909:Q O *D sky130_fd_sc_hd__dfrtp_1
*CAP
1 *1904:D 0.000463813
2 *1909:Q 0.000463813
3 *1909:RESET_B *1904:D 0.000116893
4 *1929:D *1904:D 9.54399e-05
5 *446:12 *1904:D 9.71067e-05
*RES
1 *1909:Q *1904:D 13.26 
*END

*D_NET *481 0.000589932
*CONN
*I *1905:D I *D sky130_fd_sc_hd__dfrtp_1
*I *1910:Q O *D sky130_fd_sc_hd__dfrtp_1
*CAP
1 *1905:D 0.00013886
2 *1910:Q 0.00013886
3 *1902:D *1905:D 0
4 *2068:A *1905:D 5.39718e-05
5 *216:18 *1905:D 6.23399e-05
6 *418:16 *1905:D 7.35813e-05
7 *459:10 *1905:D 0.000122319
*RES
1 *1910:Q *1905:D 10.5 
*END

*D_NET *482 0.000531586
*CONN
*I *1906:D I *D sky130_fd_sc_hd__dfrtp_1
*I *1911:Q O *D sky130_fd_sc_hd__dfrtp_1
*CAP
1 *1906:D 0.000215419
2 *1911:Q 0.000215419
3 *458:12 *1906:D 4.94326e-05
4 *462:12 *1906:D 5.13155e-05
*RES
1 *1911:Q *1906:D 10.155 
*END

*D_NET *483 0.00161375
*CONN
*I *1677:A1 I *D sky130_fd_sc_hd__a221o_1
*I *1675:A_N I *D sky130_fd_sc_hd__nand2b_1
*I *1902:Q O *D sky130_fd_sc_hd__dfrtp_1
*CAP
1 *1677:A1 2.72988e-05
2 *1675:A_N 0.000170753
3 *1902:Q 0.000233371
4 *483:10 0.000431423
5 *1625:A *1675:A_N 4.36254e-05
6 *1675:B *1675:A_N 9.10017e-06
7 *1677:A2 *1675:A_N 4.82863e-05
8 *1677:B2 *1675:A_N 0.000114492
9 *1677:C1 *1675:A_N 2.04303e-05
10 *1678:B1 *483:10 0
11 *1678:C1 *1675:A_N 0
12 *1678:C1 *483:10 0
13 *1679:C1 *483:10 7.06865e-05
14 *1928:D *1675:A_N 4.43871e-06
15 *446:10 *1675:A_N 0.000107056
16 *458:18 *483:10 2.34345e-05
17 *462:12 *483:10 7.98967e-05
18 *462:29 *1675:A_N 0.000118258
19 *462:29 *1677:A1 4.71387e-05
20 *462:29 *483:10 6.4062e-05
*RES
1 *1902:Q *483:10 7.6875 
2 *483:10 *1675:A_N 8.3925 
3 *483:10 *1677:A1 4.5375 
*END

*D_NET *484 0.000681947
*CONN
*I *1676:A I *D sky130_fd_sc_hd__xor2_1
*I *1903:Q O *D sky130_fd_sc_hd__dfrtp_1
*CAP
1 *1676:A 0.000174491
2 *1903:Q 0.000174491
3 *1925:D *1676:A 0
4 *1926:D *1676:A 0.000298442
5 *423:78 *1676:A 7.00889e-06
6 *423:93 *1676:A 2.75145e-05
*RES
1 *1903:Q *1676:A 11.07 
*END

*D_NET *485 0.00152932
*CONN
*I *1679:A1 I *D sky130_fd_sc_hd__a221o_1
*I *1678:A1 I *D sky130_fd_sc_hd__o221ai_2
*I *1904:Q O *D sky130_fd_sc_hd__dfrtp_1
*CAP
1 *1679:A1 0.000226417
2 *1678:A1 2.8889e-05
3 *1904:Q 0.000283887
4 *485:8 0.000539192
5 *1677:A2 *485:8 0
6 *1679:A2 *1679:A1 1.2818e-05
7 *1679:B1 *1679:A1 5.83121e-06
8 *1681:B1 *1678:A1 1.56428e-05
9 *1681:B1 *485:8 0.000136877
10 *1928:D *485:8 0
11 *2104:A *485:8 0
12 *2117:A *485:8 0.000104218
13 *169:6 *1679:A1 0.000103067
14 *215:12 *1679:A1 4.19884e-05
15 *215:12 *485:8 3.04982e-05
*RES
1 *1904:Q *485:8 9.315 
2 *485:8 *1678:A1 4.05 
3 *485:8 *1679:A1 7.515 
*END

*D_NET *486 0.000938477
*CONN
*I *1677:B1 I *D sky130_fd_sc_hd__a221o_1
*I *1674:A_N I *D sky130_fd_sc_hd__and2b_1
*I *1905:Q O *D sky130_fd_sc_hd__dfrtp_1
*CAP
1 *1677:B1 0.000181728
2 *1674:A_N 0.000133739
3 *1905:Q 0
4 *486:4 0.000315467
5 *1677:B2 *1677:B1 8.525e-06
6 *1681:A1 *1677:B1 0
7 *1911:D *1674:A_N 1.94723e-05
8 *216:18 *1674:A_N 5.54081e-05
9 *216:18 *1677:B1 3.32654e-05
10 *418:135 *1674:A_N 7.23533e-05
11 *446:59 *1674:A_N 0.00011852
*RES
1 *1905:Q *486:4 1.6 
2 *486:4 *1674:A_N 8.12 
3 *486:4 *1677:B1 3.955 
*END

*D_NET *487 0.000546216
*CONN
*I *1628:A I *D sky130_fd_sc_hd__inv_2
*I *1906:Q O *D sky130_fd_sc_hd__dfrtp_1
*CAP
1 *1628:A 0.000273108
2 *1906:Q 0.000273108
3 *1678:B1 *1628:A 0
4 *458:12 *1628:A 0
*RES
1 *1906:Q *1628:A 10.665 
*END

*D_NET *488 0.000530256
*CONN
*I *2027:D I *D sky130_fd_sc_hd__dfrtp_4
*I *1684:Y O *D sky130_fd_sc_hd__nor2_1
*CAP
1 *2027:D 0.000236721
2 *1684:Y 0.000236721
3 *1684:B *2027:D 2.49909e-05
4 *2071:A *2027:D 3.18219e-05
*RES
1 *1684:Y *2027:D 10.32 
*END

*D_NET *489 0.000202947
*CONN
*I *2028:D I *D sky130_fd_sc_hd__dfrtp_4
*I *1687:Y O *D sky130_fd_sc_hd__nor2_1
*CAP
1 *2028:D 5.29201e-05
2 *1687:Y 5.29201e-05
3 *1689:B *2028:D 9.71067e-05
4 *2028:RESET_B *2028:D 0
5 *409:8 *2028:D 0
*RES
1 *1687:Y *2028:D 8.325 
*END

*D_NET *490 0.000874473
*CONN
*I *2029:D I *D sky130_fd_sc_hd__dfrtp_4
*I *1691:Y O *D sky130_fd_sc_hd__nor2_1
*CAP
1 *2029:D 0.000256027
2 *1691:Y 0.000256027
3 *1691:B *2029:D 5.2089e-05
4 *410:10 *2029:D 3.47837e-05
5 *446:151 *2029:D 0.000275548
*RES
1 *1691:Y *2029:D 11.295 
*END

*D_NET *491 0.000883499
*CONN
*I *2030:D I *D sky130_fd_sc_hd__dfrtp_4
*I *1695:X O *D sky130_fd_sc_hd__and2b_1
*CAP
1 *2030:D 0.000338997
2 *1695:X 0.000338997
3 *1698:A *2030:D 0.000168213
4 *1698:B *2030:D 3.72916e-05
5 *418:110 *2030:D 0
*RES
1 *1695:X *2030:D 11.88 
*END

*D_NET *492 0.00106239
*CONN
*I *2031:D I *D sky130_fd_sc_hd__dfrtp_4
*I *1697:Y O *D sky130_fd_sc_hd__xnor2_1
*CAP
1 *2031:D 0.000373744
2 *1697:Y 0.000373744
3 *1697:A *2031:D 0.000314903
*RES
1 *1697:Y *2031:D 12.825 
*END

*D_NET *493 0.000911158
*CONN
*I *2032:D I *D sky130_fd_sc_hd__dfrtp_1
*I *1688:Y O *D sky130_fd_sc_hd__xnor2_1
*CAP
1 *2032:D 0.000259445
2 *1688:Y 0.000259445
3 *1683:A *2032:D 4.99619e-05
4 *1688:B *2032:D 3.90495e-05
5 *216:18 *2032:D 0.000147574
6 *418:16 *2032:D 6.90876e-05
7 *418:20 *2032:D 8.65961e-05
*RES
1 *1688:Y *2032:D 8.15 
*END

*D_NET *494 0.00117012
*CONN
*I *2033:D I *D sky130_fd_sc_hd__dfrtp_1
*I *1692:Y O *D sky130_fd_sc_hd__xnor2_1
*CAP
1 *2033:D 0.000454238
2 *1692:Y 0.000454238
3 *2033:D *2034:D 4.82863e-05
4 *1690:B *2033:D 0.000203178
5 *2033:CLK *2033:D 0
6 *2068:A *2033:D 0
7 *2071:A *2033:D 0
8 *417:108 *2033:D 1.01745e-05
*RES
1 *1692:Y *2033:D 15.015 
*END

*D_NET *495 0.000683504
*CONN
*I *2034:D I *D sky130_fd_sc_hd__dfrtp_1
*I *1696:Y O *D sky130_fd_sc_hd__xnor2_1
*CAP
1 *2034:D 0.000297341
2 *1696:Y 0.000297341
3 *2033:D *2034:D 4.82863e-05
4 *222:8 *2034:D 4.05358e-05
5 *417:108 *2034:D 0
*RES
1 *1696:Y *2034:D 10.8638 
*END

*D_NET *496 0.000736937
*CONN
*I *2035:D I *D sky130_fd_sc_hd__dfrtp_1
*I *1698:Y O *D sky130_fd_sc_hd__xnor2_1
*CAP
1 *2035:D 0.000206847
2 *1698:Y 0.000206847
3 *1698:A *2035:D 0.000142661
4 *418:97 *2035:D 4.91742e-05
5 *418:110 *2035:D 0.000131408
*RES
1 *1698:Y *2035:D 11.52 
*END

*D_NET *497 0.000499014
*CONN
*I *1994:D I *D sky130_fd_sc_hd__dfrtp_4
*I *1701:X O *D sky130_fd_sc_hd__xor2_1
*CAP
1 *1994:D 0.000175568
2 *1701:X 0.000175568
3 *1701:B *1994:D 1.08758e-05
4 *1925:D *1994:D 0
5 *2116:A *1994:D 1.94892e-05
6 *225:8 *1994:D 3.09179e-05
7 *411:14 *1994:D 8.65961e-05
8 *432:98 *1994:D 0
*RES
1 *1701:X *1994:D 9.885 
*END

*D_NET *498 0.000932664
*CONN
*I *1995:D I *D sky130_fd_sc_hd__dfrtp_4
*I *1704:Y O *D sky130_fd_sc_hd__nor2_1
*CAP
1 *1995:D 0.000326881
2 *1704:Y 0.000326881
3 *1704:A *1995:D 0.000189934
4 *2116:A *1995:D 0
5 *227:8 *1995:D 8.89673e-05
6 *432:98 *1995:D 0
*RES
1 *1704:Y *1995:D 13.2 
*END

*D_NET *499 0.000496757
*CONN
*I *1996:D I *D sky130_fd_sc_hd__dfrtp_4
*I *1707:X O *D sky130_fd_sc_hd__xor2_1
*CAP
1 *1996:D 0.000101545
2 *1707:X 0.000101545
3 *2000:CLK *1996:D 5.47473e-05
4 *413:10 *1996:D 0.000238919
5 *413:23 *1996:D 0
*RES
1 *1707:X *1996:D 5.99 
*END

*D_NET *500 0.00108792
*CONN
*I *1997:D I *D sky130_fd_sc_hd__dfrtp_1
*I *1712:X O *D sky130_fd_sc_hd__and2_1
*CAP
1 *1997:D 0.00025618
2 *1712:X 0.00025618
3 *1700:A *1997:D 0.000136305
4 *1712:B *1997:D 0.000158072
5 *1908:D *1997:D 0
6 *1997:CLK *1997:D 1.94636e-05
7 *1998:RESET_B *1997:D 5.2089e-05
8 *2000:RESET_B *1997:D 4.43871e-06
9 *165:29 *1997:D 4.99619e-05
10 *411:179 *1997:D 1.4389e-05
11 *438:185 *1997:D 0.000140844
*RES
1 *1712:X *1997:D 13.065 
*END

*D_NET *501 0.00108147
*CONN
*I *1998:D I *D sky130_fd_sc_hd__dfrtp_2
*I *1714:Y O *D sky130_fd_sc_hd__xnor2_1
*CAP
1 *1998:D 0.000431006
2 *1714:Y 0.000431006
3 *1998:RESET_B *1998:D 0
4 *231:12 *1998:D 0
5 *423:10 *1998:D 7.75325e-05
6 *423:12 *1998:D 0.000141929
*RES
1 *1714:Y *1998:D 15.495 
*END

*D_NET *502 0.00342713
*CONN
*I *1999:D I *D sky130_fd_sc_hd__dfrtp_1
*I *1705:Y O *D sky130_fd_sc_hd__xnor2_1
*CAP
1 *1999:D 0.00104209
2 *1705:Y 0.00104209
3 *1908:D *1999:D 0.000270653
4 *1910:D *1999:D 0.000285169
5 *1912:D *1999:D 9.37731e-05
6 *1929:CLK *1999:D 0.000196376
7 *1999:RESET_B *1999:D 0
8 *423:29 *1999:D 0.000199833
9 *423:78 *1999:D 0.000297138
*RES
1 *1705:Y *1999:D 24.765 
*END

*D_NET *503 0.00110508
*CONN
*I *2000:D I *D sky130_fd_sc_hd__dfrtp_1
*I *1708:Y O *D sky130_fd_sc_hd__xnor2_1
*CAP
1 *2000:D 0.000235908
2 *1708:Y 0.000235908
3 *1704:B *2000:D 0.00011852
4 *1706:A3 *2000:D 0.000127005
5 *2000:CLK *2000:D 7.34286e-05
6 *413:76 *2000:D 2.86265e-06
7 *413:80 *2000:D 1.08758e-05
8 *450:8 *2000:D 4.82863e-05
9 *450:226 *2000:D 0.000252282
*RES
1 *1708:Y *2000:D 12.3188 
*END

*D_NET *504 0.0003852
*CONN
*I *2001:D I *D sky130_fd_sc_hd__dfrtp_1
*I *1713:Y O *D sky130_fd_sc_hd__xnor2_1
*CAP
1 *2001:D 0.000148467
2 *1713:Y 0.000148467
3 *1706:A1 *2001:D 8.8266e-05
4 *1908:D *2001:D 0
5 *1925:D *2001:D 0
*RES
1 *1713:Y *2001:D 9.375 
*END

*D_NET *505 0.000997648
*CONN
*I *2002:D I *D sky130_fd_sc_hd__dfrtp_1
*I *1715:X O *D sky130_fd_sc_hd__xor2_1
*CAP
1 *2002:D 0.000232129
2 *1715:X 0.000232129
3 *1710:A *2002:D 0.000136884
4 *1712:A *2002:D 3.67779e-05
5 *1998:RESET_B *2002:D 0
6 *2002:CLK *2002:D 0.000180675
7 *411:207 *2002:D 2.75145e-05
8 *423:14 *2002:D 9.14049e-05
9 *477:10 *2002:D 6.01336e-05
*RES
1 *1715:X *2002:D 11.955 
*END
